Ca3W2O9                                 
   1.0000000000000000     
     5.5479530457022364    0.0000000000000001    0.0000000000000000
    -2.7739765228511182    4.8046682766048816   -0.0000000000000000
     0.0000000000000000    0.0000000000000000    7.0612673610570020
   Ca   W    O 
     3     2     9
Direct
  0.3333333429999996  0.6666666870000029  0.3457730498161112
  0.6666666870000029  0.3333333429999996  0.6542269801838914
  0.0000000000000000 -0.0000000000000000  0.0000000000000000
  0.3333333429999996  0.6666666870000029  0.8236440344857014
  0.6666666870000029  0.3333333429999996  0.1763559655142987
  0.0854803028954313  0.7307306670046358  0.6928932720401585
  0.2692693329953643  0.3547496508908289  0.6928932720401585
  0.6452503491091998  0.9145196821045568  0.6928932720401585
  0.7307306670046572  0.0854803028954455  0.3071067279598415
  0.3547496508908005  0.2692693329953643  0.3071067279598415
  0.9145196821045497  0.6452503491091713  0.3071067279598415
  0.0000000000000000  0.4213862990160797  0.0000000000000000
  0.5786137009839203  0.5786137009839203  0.0000000000000000
  0.4213862990160868 -0.0000000000000000  0.0000000000000000

  0.00000000E+00  0.00000000E+00  0.00000000E+00
  0.00000000E+00  0.00000000E+00  0.00000000E+00
  0.00000000E+00  0.00000000E+00  0.00000000E+00
  0.00000000E+00  0.00000000E+00  0.00000000E+00
  0.00000000E+00  0.00000000E+00  0.00000000E+00
  0.00000000E+00  0.00000000E+00  0.00000000E+00
  0.00000000E+00  0.00000000E+00  0.00000000E+00
  0.00000000E+00  0.00000000E+00  0.00000000E+00
  0.00000000E+00  0.00000000E+00  0.00000000E+00
  0.00000000E+00  0.00000000E+00  0.00000000E+00
  0.00000000E+00  0.00000000E+00  0.00000000E+00
  0.00000000E+00  0.00000000E+00  0.00000000E+00
  0.00000000E+00  0.00000000E+00  0.00000000E+00
  0.00000000E+00  0.00000000E+00  0.00000000E+00
