CsAsI4                             
   1.0000000000000000     
     5.7517919573216210    0.0000000000000000    0.0000000000000000
     0.0000000000000000   23.8341497482073379    0.0000000000000000
     0.0000000000000000   -0.0000000000000000    8.4379780425565727
   Cs   As   I 
     4     4    16
Direct
 -0.0000000000000000  0.4133372545350880  0.7500000000000000
 -0.0000000000000000  0.5866627154649167  0.2500000000000000
  0.5000000000000000  0.9133372845350833  0.7500000000000000
  0.5000000000000000  0.0866627454649120  0.2500000000000000
  0.0000000000000000  0.1024521236764207  0.7500000000000000
 -0.0000000000000000  0.8975478983235810  0.2500000000000000
  0.5000000000000000  0.6024521016764190  0.7500000000000000
  0.5000000000000000  0.3975478683235787  0.2500000000000000
  0.0000000000000000  0.1772922531564833  0.5129948873742201
 -0.0000000000000000  0.8227077768435191  0.4870051126257798
 -0.0000000000000000  0.8227077768435191  0.0129948873742202
 -0.0000000000000000  0.1772922531564833  0.9870051126257799
  0.5000000000000000  0.6772922231564809  0.5129948873742201
  0.5000000000000000  0.3227077468435169  0.4870051126257798
  0.5000000000000000  0.3227077468435169  0.0129948873742202
  0.5000000000000000  0.6772922231564809  0.9870051126257799
 -0.0000000000000000 -0.0000000000000000  0.0000000000000000
 -0.0000000000000000  0.0000000000000000  0.5000000000000000
  0.5000000000000000  0.5000000000000000  0.0000000000000000
  0.5000000000000000  0.5000000000000000  0.5000000000000000
  0.0000000000000000  0.4190462889462914  0.2500000000000000
  0.0000000000000000  0.5809536810537060  0.7500000000000000
  0.5000000000000000  0.9190463189462940  0.2500000000000000
  0.5000000000000000  0.0809537110537086  0.7500000000000000

  0.00000000E+00  0.00000000E+00  0.00000000E+00
  0.00000000E+00  0.00000000E+00  0.00000000E+00
  0.00000000E+00  0.00000000E+00  0.00000000E+00
  0.00000000E+00  0.00000000E+00  0.00000000E+00
  0.00000000E+00  0.00000000E+00  0.00000000E+00
  0.00000000E+00  0.00000000E+00  0.00000000E+00
  0.00000000E+00  0.00000000E+00  0.00000000E+00
  0.00000000E+00  0.00000000E+00  0.00000000E+00
  0.00000000E+00  0.00000000E+00  0.00000000E+00
  0.00000000E+00  0.00000000E+00  0.00000000E+00
  0.00000000E+00  0.00000000E+00  0.00000000E+00
  0.00000000E+00  0.00000000E+00  0.00000000E+00
  0.00000000E+00  0.00000000E+00  0.00000000E+00
  0.00000000E+00  0.00000000E+00  0.00000000E+00
  0.00000000E+00  0.00000000E+00  0.00000000E+00
  0.00000000E+00  0.00000000E+00  0.00000000E+00
  0.00000000E+00  0.00000000E+00  0.00000000E+00
  0.00000000E+00  0.00000000E+00  0.00000000E+00
  0.00000000E+00  0.00000000E+00  0.00000000E+00
  0.00000000E+00  0.00000000E+00  0.00000000E+00
  0.00000000E+00  0.00000000E+00  0.00000000E+00
  0.00000000E+00  0.00000000E+00  0.00000000E+00
  0.00000000E+00  0.00000000E+00  0.00000000E+00
  0.00000000E+00  0.00000000E+00  0.00000000E+00
