Cs2GeI4                                 
   1.0000000000000000     
     5.9271166244204689    0.0000000000000000   -0.0000000000000000
     0.0000000000000000    5.9271166244204689    0.0000000000000000
     0.0000000000000000   -0.0000000000000000   19.3368399955919195
   Cs   Ge   I 
     4     2     8
Direct
  0.0000000000000000 -0.0000000000000000  0.3571584918075242
 -0.0000000000000000  0.0000000000000000  0.6428415081924759
  0.5000000000000000  0.5000000000000000  0.8571584918075241
  0.5000000000000000  0.5000000000000000  0.1428415081924758
 -0.0000000000000000  0.0000000000000000  0.0000000000000000
  0.5000000000000000  0.5000000000000000  0.5000000000000000
  0.0000000000000000 -0.0000000000000000  0.1576635543114267
 -0.0000000000000000 -0.0000000000000000  0.8423364456885732
  0.5000000000000000  0.5000000000000000  0.6576635543114268
  0.5000000000000000  0.5000000000000000  0.3423364456885732
 -0.0000000000000000  0.5000000000000000  0.0000000000000000
  0.5000000000000000  0.0000000000000000  0.0000000000000000
  0.5000000000000000  0.0000000000000000  0.5000000000000000
 -0.0000000000000000  0.5000000000000000  0.5000000000000000

  0.00000000E+00  0.00000000E+00  0.00000000E+00
  0.00000000E+00  0.00000000E+00  0.00000000E+00
  0.00000000E+00  0.00000000E+00  0.00000000E+00
  0.00000000E+00  0.00000000E+00  0.00000000E+00
  0.00000000E+00  0.00000000E+00  0.00000000E+00
  0.00000000E+00  0.00000000E+00  0.00000000E+00
  0.00000000E+00  0.00000000E+00  0.00000000E+00
  0.00000000E+00  0.00000000E+00  0.00000000E+00
  0.00000000E+00  0.00000000E+00  0.00000000E+00
  0.00000000E+00  0.00000000E+00  0.00000000E+00
  0.00000000E+00  0.00000000E+00  0.00000000E+00
  0.00000000E+00  0.00000000E+00  0.00000000E+00
  0.00000000E+00  0.00000000E+00  0.00000000E+00
  0.00000000E+00  0.00000000E+00  0.00000000E+00
