Sr2TiO4
   1.0000000000000000     
     3.9150510286989038    0.0000000000000000    0.0000000000000000
     0.0000000000000000    3.9150510286989038    0.0000000000000000
     0.0000000000000000    0.0000000000000000   12.6461921410183074
   Sr   Ti   O 
     4     2     8
Direct
  0.0000000000000000  0.0000000000000000  0.3546211726514725
 -0.0000000000000000 -0.0000000000000000  0.6453788273485276
  0.5000000000000000  0.5000000000000000  0.8546211726514724
  0.5000000000000000  0.5000000000000000  0.1453788273485275
  0.0000000000000000 -0.0000000000000000  0.0000000000000000
  0.5000000000000000  0.5000000000000000  0.5000000000000000
  0.0000000000000000 -0.0000000000000000  0.1583136036344465
 -0.0000000000000000  0.0000000000000000  0.8416863963655534
  0.5000000000000000  0.5000000000000000  0.6583136036344466
  0.5000000000000000  0.5000000000000000  0.3416863963655534
 -0.0000000000000000  0.5000000000000000  0.0000000000000000
  0.5000000000000000 -0.0000000000000000  0.0000000000000000
  0.5000000000000000 -0.0000000000000000  0.5000000000000000
 -0.0000000000000000  0.5000000000000000  0.5000000000000000

  0.00000000E+00  0.00000000E+00  0.00000000E+00
  0.00000000E+00  0.00000000E+00  0.00000000E+00
  0.00000000E+00  0.00000000E+00  0.00000000E+00
  0.00000000E+00  0.00000000E+00  0.00000000E+00
  0.00000000E+00  0.00000000E+00  0.00000000E+00
  0.00000000E+00  0.00000000E+00  0.00000000E+00
  0.00000000E+00  0.00000000E+00  0.00000000E+00
  0.00000000E+00  0.00000000E+00  0.00000000E+00
  0.00000000E+00  0.00000000E+00  0.00000000E+00
  0.00000000E+00  0.00000000E+00  0.00000000E+00
  0.00000000E+00  0.00000000E+00  0.00000000E+00
  0.00000000E+00  0.00000000E+00  0.00000000E+00
  0.00000000E+00  0.00000000E+00  0.00000000E+00
  0.00000000E+00  0.00000000E+00  0.00000000E+00
