RbAsI4                             
   1.0000000000000000     
     5.7096944240365266    0.0000000000000000    0.0000000000000000
     0.0000000000000000   24.0269291712451647    0.0000000000000000
     0.0000000000000000    0.0000000000000000    8.2892633904040913
   Rb   As   I 
     4     4    16
Direct
  0.0000000000000000  0.4198101723774137  0.7500000000000000
  0.0000000000000000  0.5801897976225908  0.2500000000000000
  0.5000000000000000  0.9198102023774092  0.7500000000000000
  0.5000000000000000  0.0801898276225863  0.2500000000000000
 -0.0000000000000000  0.1023534258856470  0.7500000000000000
  0.0000000000000000  0.8976465961143548  0.2500000000000000
  0.5000000000000000  0.6023534038856452  0.7500000000000000
  0.5000000000000000  0.3976465661143524  0.2500000000000000
  0.0000000000000000  0.1753168965598476  0.5061319676462228
 -0.0000000000000000  0.8246831334401479  0.4938680323537771
 -0.0000000000000000  0.8246831334401479  0.0061319676462229
  0.0000000000000000  0.1753168965598476  0.9938680323537772
  0.5000000000000000  0.6753168665598521  0.5061319676462228
  0.5000000000000000  0.3246831034401524  0.4938680323537771
  0.5000000000000000  0.3246831034401524  0.0061319676462229
  0.5000000000000000  0.6753168665598521  0.9938680323537772
  0.0000000000000000 -0.0000000000000000 -0.0000000000000000
  0.0000000000000000 -0.0000000000000000  0.5000000000000000
  0.5000000000000000  0.5000000000000000 -0.0000000000000000
  0.5000000000000000  0.5000000000000000  0.5000000000000000
  0.0000000000000000  0.4198966741735842  0.2500000000000000
  0.0000000000000000  0.5801032958264133  0.7500000000000000
  0.5000000000000000  0.9198967041735867  0.2500000000000000
  0.5000000000000000  0.0801033258264158  0.7500000000000000

  0.00000000E+00  0.00000000E+00  0.00000000E+00
  0.00000000E+00  0.00000000E+00  0.00000000E+00
  0.00000000E+00  0.00000000E+00  0.00000000E+00
  0.00000000E+00  0.00000000E+00  0.00000000E+00
  0.00000000E+00  0.00000000E+00  0.00000000E+00
  0.00000000E+00  0.00000000E+00  0.00000000E+00
  0.00000000E+00  0.00000000E+00  0.00000000E+00
  0.00000000E+00  0.00000000E+00  0.00000000E+00
  0.00000000E+00  0.00000000E+00  0.00000000E+00
  0.00000000E+00  0.00000000E+00  0.00000000E+00
  0.00000000E+00  0.00000000E+00  0.00000000E+00
  0.00000000E+00  0.00000000E+00  0.00000000E+00
  0.00000000E+00  0.00000000E+00  0.00000000E+00
  0.00000000E+00  0.00000000E+00  0.00000000E+00
  0.00000000E+00  0.00000000E+00  0.00000000E+00
  0.00000000E+00  0.00000000E+00  0.00000000E+00
  0.00000000E+00  0.00000000E+00  0.00000000E+00
  0.00000000E+00  0.00000000E+00  0.00000000E+00
  0.00000000E+00  0.00000000E+00  0.00000000E+00
  0.00000000E+00  0.00000000E+00  0.00000000E+00
  0.00000000E+00  0.00000000E+00  0.00000000E+00
  0.00000000E+00  0.00000000E+00  0.00000000E+00
  0.00000000E+00  0.00000000E+00  0.00000000E+00
  0.00000000E+00  0.00000000E+00  0.00000000E+00
