Cs2PbCl4                             
   1.0000000000000000     
     5.7084402355641091    0.0000000000000000    0.0000000000000000
     0.0000000000000000    5.7084402355641091    0.0000000000000000
     0.0000000000000000    0.0000000000000000   17.5645233601731334
   Cs   Pb   Cl
     4     2     8
Direct
  0.0000000000000000 -0.0000000000000000  0.3584262654849091
  0.0000000000000000  0.0000000000000000  0.6415737345150909
  0.5000000000000000  0.5000000000000000  0.8584262654849091
  0.5000000000000000  0.5000000000000000  0.1415737345150909
 -0.0000000000000000  0.0000000000000000 -0.0000000000000000
  0.5000000000000000  0.5000000000000000  0.5000000000000000
 -0.0000000000000000 -0.0000000000000000  0.1642532166680493
  0.0000000000000000 -0.0000000000000000  0.8357467833319507
  0.5000000000000000  0.5000000000000000  0.6642532166680493
  0.5000000000000000  0.5000000000000000  0.3357467833319507
  0.0000000000000000  0.5000000000000000 -0.0000000000000000
  0.5000000000000000 -0.0000000000000000 -0.0000000000000000
  0.5000000000000000 -0.0000000000000000  0.5000000000000000
  0.0000000000000000  0.5000000000000000  0.5000000000000000

  0.00000000E+00  0.00000000E+00  0.00000000E+00
  0.00000000E+00  0.00000000E+00  0.00000000E+00
  0.00000000E+00  0.00000000E+00  0.00000000E+00
  0.00000000E+00  0.00000000E+00  0.00000000E+00
  0.00000000E+00  0.00000000E+00  0.00000000E+00
  0.00000000E+00  0.00000000E+00  0.00000000E+00
  0.00000000E+00  0.00000000E+00  0.00000000E+00
  0.00000000E+00  0.00000000E+00  0.00000000E+00
  0.00000000E+00  0.00000000E+00  0.00000000E+00
  0.00000000E+00  0.00000000E+00  0.00000000E+00
  0.00000000E+00  0.00000000E+00  0.00000000E+00
  0.00000000E+00  0.00000000E+00  0.00000000E+00
  0.00000000E+00  0.00000000E+00  0.00000000E+00
  0.00000000E+00  0.00000000E+00  0.00000000E+00
