Cs2SnCl4                             
   1.0000000000000000     
     5.6154114941320836    0.0000000000000000    0.0000000000000000
     0.0000000000000000    5.6154114941320836    0.0000000000000000
     0.0000000000000000    0.0000000000000000   17.5153610337648082
   Cs   Sn   Cl
     4     2     8
Direct
  0.0000000000000000  0.0000000000000000  0.3582811554984591
 -0.0000000000000000 -0.0000000000000000  0.6417188445015409
  0.5000000000000000  0.5000000000000000  0.8582811554984591
  0.5000000000000000  0.5000000000000000  0.1417188445015409
 -0.0000000000000000 -0.0000000000000000 -0.0000000000000000
  0.5000000000000000  0.5000000000000000  0.5000000000000000
 -0.0000000000000000 -0.0000000000000000  0.1619849605497350
  0.0000000000000000  0.0000000000000000  0.8380150394502649
  0.5000000000000000  0.5000000000000000  0.6619849605497351
  0.5000000000000000  0.5000000000000000  0.3380150394502650
 -0.0000000000000000  0.5000000000000000 -0.0000000000000000
  0.5000000000000000 -0.0000000000000000 -0.0000000000000000
  0.5000000000000000 -0.0000000000000000  0.5000000000000000
 -0.0000000000000000  0.5000000000000000  0.5000000000000000

  0.00000000E+00  0.00000000E+00  0.00000000E+00
  0.00000000E+00  0.00000000E+00  0.00000000E+00
  0.00000000E+00  0.00000000E+00  0.00000000E+00
  0.00000000E+00  0.00000000E+00  0.00000000E+00
  0.00000000E+00  0.00000000E+00  0.00000000E+00
  0.00000000E+00  0.00000000E+00  0.00000000E+00
  0.00000000E+00  0.00000000E+00  0.00000000E+00
  0.00000000E+00  0.00000000E+00  0.00000000E+00
  0.00000000E+00  0.00000000E+00  0.00000000E+00
  0.00000000E+00  0.00000000E+00  0.00000000E+00
  0.00000000E+00  0.00000000E+00  0.00000000E+00
  0.00000000E+00  0.00000000E+00  0.00000000E+00
  0.00000000E+00  0.00000000E+00  0.00000000E+00
  0.00000000E+00  0.00000000E+00  0.00000000E+00
