Ca2TiO4                                 
   1.0000000000000000     
     3.8260062139756124    0.0000000000000000   -0.0000000000000000
     0.0000000000000000    3.8260062139756124    0.0000000000000000
     0.0000000000000000    0.0000000000000000   11.8845225760761526
   Ca   Ti   O 
     4     2     8
Direct
  0.0000000000000000 -0.0000000000000000  0.3538307097605763
 -0.0000000000000000 -0.0000000000000000  0.6461692902394239
  0.5000000000000000  0.5000000000000000  0.8538307097605761
  0.5000000000000000  0.5000000000000000  0.1461692902394237
  0.0000000000000000  0.0000000000000000  0.0000000000000000
  0.5000000000000000  0.5000000000000000  0.5000000000000000
 -0.0000000000000000  0.0000000000000000  0.1663787476237195
  0.0000000000000000  0.0000000000000000  0.8336212523762806
  0.5000000000000000  0.5000000000000000  0.6663787476237194
  0.5000000000000000  0.5000000000000000  0.3336212523762805
  0.0000000000000000  0.5000000000000000  0.0000000000000000
  0.5000000000000000  0.0000000000000000  0.0000000000000000
  0.5000000000000000 -0.0000000000000000  0.5000000000000000
  0.0000000000000000  0.5000000000000000  0.5000000000000000

  0.00000000E+00  0.00000000E+00  0.00000000E+00
  0.00000000E+00  0.00000000E+00  0.00000000E+00
  0.00000000E+00  0.00000000E+00  0.00000000E+00
  0.00000000E+00  0.00000000E+00  0.00000000E+00
  0.00000000E+00  0.00000000E+00  0.00000000E+00
  0.00000000E+00  0.00000000E+00  0.00000000E+00
  0.00000000E+00  0.00000000E+00  0.00000000E+00
  0.00000000E+00  0.00000000E+00  0.00000000E+00
  0.00000000E+00  0.00000000E+00  0.00000000E+00
  0.00000000E+00  0.00000000E+00  0.00000000E+00
  0.00000000E+00  0.00000000E+00  0.00000000E+00
  0.00000000E+00  0.00000000E+00  0.00000000E+00
  0.00000000E+00  0.00000000E+00  0.00000000E+00
  0.00000000E+00  0.00000000E+00  0.00000000E+00
