Cs3As2Br9                             
   1.0000000000000000     
     7.9220712267590647    0.0000000000000000    0.0000000000000000
    -3.9610356133795324    6.8607149330457844   -0.0000000000000000
     0.0000000000000000    0.0000000000000000    9.6791792429122481
   Cs   As   Br
     3     2     9
Direct
  0.3333333429999996  0.6666666870000029  0.3195841236407977
  0.6666666870000029  0.3333333429999996  0.6804159063592047
 -0.0000000000000000  0.0000000000000000 -0.0000000000000000
  0.3333333429999996  0.6666666870000029  0.8172932711790188
  0.6666666870000029  0.3333333429999996  0.1827067288209812
  0.1753299070477370  0.8174379634829212  0.6753243405694431
  0.1825620365170788  0.3578919585648205  0.6753243405694431
  0.6421080414351863  0.8246700779522654  0.6753243405694431
  0.8174379634829212  0.1753299070477370  0.3246756594305569
  0.3578919585648134  0.1825620365170788  0.3246756594305569
  0.8246700779522653  0.6421080414351792  0.3246756594305569
  0.0000000000000000  0.4940161271444596 -0.0000000000000000
  0.5059838728555407  0.5059838728555407 -0.0000000000000000
  0.4940161271444596  0.0000000000000000 -0.0000000000000000

  0.00000000E+00  0.00000000E+00  0.00000000E+00
  0.00000000E+00  0.00000000E+00  0.00000000E+00
  0.00000000E+00  0.00000000E+00  0.00000000E+00
  0.00000000E+00  0.00000000E+00  0.00000000E+00
  0.00000000E+00  0.00000000E+00  0.00000000E+00
  0.00000000E+00  0.00000000E+00  0.00000000E+00
  0.00000000E+00  0.00000000E+00  0.00000000E+00
  0.00000000E+00  0.00000000E+00  0.00000000E+00
  0.00000000E+00  0.00000000E+00  0.00000000E+00
  0.00000000E+00  0.00000000E+00  0.00000000E+00
  0.00000000E+00  0.00000000E+00  0.00000000E+00
  0.00000000E+00  0.00000000E+00  0.00000000E+00
  0.00000000E+00  0.00000000E+00  0.00000000E+00
  0.00000000E+00  0.00000000E+00  0.00000000E+00
