Cs4PbI6
   1.0000000000000000     
    10.6368699454060369   -0.0033730920886126   -0.0033284141984234
     0.1403660796158260   10.6359442916434634   -0.0033284141982350
     0.1403660796158002    0.1384819199144397   10.6350432444838567
   Cs   Pb   I 
     8     2    12
Direct
  0.2500000000000000  0.2500000000000000  0.2500000000000000
  0.7500000000000000  0.7500000000000000  0.7500000000000000
  0.2500000000000000  0.6295797168773116  0.8704202831226884
  0.8704202831226884  0.2500000000000000  0.6295797168773116
  0.6295797168773116  0.8704202831226884  0.2500000000000000
  0.7500000000000000  0.3704202831226885  0.1295797168773116
  0.1295797168773116  0.7500000000000000  0.3704202831226885
  0.3704202831226885  0.1295797168773116  0.7500000000000000
 -0.0000000000000000  0.0000000000000000  0.0000000000000000
  0.5000000000000000  0.5000000000000000  0.5000000000000000
  0.5597954396822309  0.2056524117972517  0.4296105034411509
  0.4296105034411509  0.5597954396822309  0.2056524117972517
  0.2056524117972588  0.4296105034411509  0.5597954396822309
  0.9402045603177691  0.0703895045588499  0.2943475732027435
  0.2943475732027435  0.9402045603177691  0.0703895045588499
  0.0703895045588499  0.2943475732027435  0.9402045603177691
  0.4402045603177691  0.7943475732027436  0.5703894965588493
  0.5703894965588493  0.4402045603177691  0.7943475732027436
  0.7943475732027436  0.5703894965588493  0.4402045603177691
  0.0597954506822284  0.9296105034411507  0.7056524267972564
  0.9296105034411507  0.7056524267972564  0.0597954506822284
  0.7056524267972564  0.0597954506822284  0.9296105034411507

  0.00000000E+00  0.00000000E+00  0.00000000E+00
  0.00000000E+00  0.00000000E+00  0.00000000E+00
  0.00000000E+00  0.00000000E+00  0.00000000E+00
  0.00000000E+00  0.00000000E+00  0.00000000E+00
  0.00000000E+00  0.00000000E+00  0.00000000E+00
  0.00000000E+00  0.00000000E+00  0.00000000E+00
  0.00000000E+00  0.00000000E+00  0.00000000E+00
  0.00000000E+00  0.00000000E+00  0.00000000E+00
  0.00000000E+00  0.00000000E+00  0.00000000E+00
  0.00000000E+00  0.00000000E+00  0.00000000E+00
  0.00000000E+00  0.00000000E+00  0.00000000E+00
  0.00000000E+00  0.00000000E+00  0.00000000E+00
  0.00000000E+00  0.00000000E+00  0.00000000E+00
  0.00000000E+00  0.00000000E+00  0.00000000E+00
  0.00000000E+00  0.00000000E+00  0.00000000E+00
  0.00000000E+00  0.00000000E+00  0.00000000E+00
  0.00000000E+00  0.00000000E+00  0.00000000E+00
  0.00000000E+00  0.00000000E+00  0.00000000E+00
  0.00000000E+00  0.00000000E+00  0.00000000E+00
  0.00000000E+00  0.00000000E+00  0.00000000E+00
  0.00000000E+00  0.00000000E+00  0.00000000E+00
  0.00000000E+00  0.00000000E+00  0.00000000E+00
