Ca2TiO4                              
   1.0000000000000000     
     3.8451067539608861    0.0000000000000000    0.0000000000000000
     0.0000000000000000    3.8451067539608861    0.0000000000000000
     0.0000000000000000    0.0000000000000000   11.9457960556291862
   Ca   Ti   O 
     4     2     8
Direct
 -0.0000000000000000 -0.0000000000000000  0.3536443122575545
  0.0000000000000000 -0.0000000000000000  0.6463556877424456
  0.5000000000000000  0.5000000000000000  0.8536443122575544
  0.5000000000000000  0.5000000000000000  0.1463556877424455
  0.0000000000000000 -0.0000000000000000  0.0000000000000000
  0.5000000000000000  0.5000000000000000  0.5000000000000000
 -0.0000000000000000 -0.0000000000000000  0.1659805975578302
  0.0000000000000000 -0.0000000000000000  0.8340194024421698
  0.5000000000000000  0.5000000000000000  0.6659805975578302
  0.5000000000000000  0.5000000000000000  0.3340194024421698
 -0.0000000000000000  0.5000000000000000  0.0000000000000000
  0.5000000000000000  0.0000000000000000  0.0000000000000000
  0.5000000000000000  0.0000000000000000  0.5000000000000000
 -0.0000000000000000  0.5000000000000000  0.5000000000000000

  0.00000000E+00  0.00000000E+00  0.00000000E+00
  0.00000000E+00  0.00000000E+00  0.00000000E+00
  0.00000000E+00  0.00000000E+00  0.00000000E+00
  0.00000000E+00  0.00000000E+00  0.00000000E+00
  0.00000000E+00  0.00000000E+00  0.00000000E+00
  0.00000000E+00  0.00000000E+00  0.00000000E+00
  0.00000000E+00  0.00000000E+00  0.00000000E+00
  0.00000000E+00  0.00000000E+00  0.00000000E+00
  0.00000000E+00  0.00000000E+00  0.00000000E+00
  0.00000000E+00  0.00000000E+00  0.00000000E+00
  0.00000000E+00  0.00000000E+00  0.00000000E+00
  0.00000000E+00  0.00000000E+00  0.00000000E+00
  0.00000000E+00  0.00000000E+00  0.00000000E+00
  0.00000000E+00  0.00000000E+00  0.00000000E+00
