Sr4TiO6                                 
   1.0000000000000000     
     6.8692157772889892   -0.0479108946360264   -0.0470251218033922
     0.0815052871264968    6.8688917896918840   -0.0473683337550809
     0.0815050937354870    0.0803221545339553    6.8685941683502350
   Sr   Ti   O 
     8     2    12
Direct
  0.2499998929512088  0.2499997221330830  0.2499999411638854
  0.7500001070487912  0.7500002778669241  0.7500000588361146
  0.2500000260783826  0.6147959151152954  0.8852041693134141
  0.8852042132000062  0.2499999325947684  0.6147958293913381
  0.6147960099628790  0.8852040588650844  0.2499998452491989
  0.7499999739216175  0.3852040848847045  0.1147958306865861
  0.1147957867999941  0.7500000674052316  0.3852041706086619
  0.3852039900371208  0.1147959411349228  0.7500001547508010
  0.0000000000000000  0.0000000000000000  0.0000000000000000
  0.5000000000000000  0.5000000000000000  0.5000000000000000
  0.5571227827191532  0.2220150968447533  0.4269839923819032
  0.4269842868055434  0.5571226718081276  0.2220152268027171
  0.2220150501104270  0.4269839421158111  0.5571226477614090
  0.9428773183382346  0.0730159513237680  0.2779850047285585
  0.2779850372595904  0.9428770799964598  0.0730160390074855
  0.0730160885088302  0.2779850241886486  0.9428775203794352
  0.4428772172808468  0.7779848881552419  0.5730160076180967
  0.5730157131944565  0.4428773281918723  0.7779847581972780
  0.7779849348895681  0.5730160578841889  0.4428773522385909
  0.0571226926617629  0.9269840566762398  0.7220149952714418
  0.9269839194911706  0.7220149758113513  0.0571224906205624
  0.7220149627404026  0.0571229310035377  0.9269839689925151

  0.00000000E+00  0.00000000E+00  0.00000000E+00
  0.00000000E+00  0.00000000E+00  0.00000000E+00
  0.00000000E+00  0.00000000E+00  0.00000000E+00
  0.00000000E+00  0.00000000E+00  0.00000000E+00
  0.00000000E+00  0.00000000E+00  0.00000000E+00
  0.00000000E+00  0.00000000E+00  0.00000000E+00
  0.00000000E+00  0.00000000E+00  0.00000000E+00
  0.00000000E+00  0.00000000E+00  0.00000000E+00
  0.00000000E+00  0.00000000E+00  0.00000000E+00
  0.00000000E+00  0.00000000E+00  0.00000000E+00
  0.00000000E+00  0.00000000E+00  0.00000000E+00
  0.00000000E+00  0.00000000E+00  0.00000000E+00
  0.00000000E+00  0.00000000E+00  0.00000000E+00
  0.00000000E+00  0.00000000E+00  0.00000000E+00
  0.00000000E+00  0.00000000E+00  0.00000000E+00
  0.00000000E+00  0.00000000E+00  0.00000000E+00
  0.00000000E+00  0.00000000E+00  0.00000000E+00
  0.00000000E+00  0.00000000E+00  0.00000000E+00
  0.00000000E+00  0.00000000E+00  0.00000000E+00
  0.00000000E+00  0.00000000E+00  0.00000000E+00
  0.00000000E+00  0.00000000E+00  0.00000000E+00
  0.00000000E+00  0.00000000E+00  0.00000000E+00
