AsCl3                                   
   1.0000000000000000     
    20.0000000000000000    0.0000000000000000    0.0000000000000000
     0.0000000000000000   20.0000000000000000    0.0000000000000000
     0.0000000000000000    0.0000000000000000   20.0000000000000000
   As   Cl
     1     3
Direct
 -0.0000009804203183  0.0000000000000000 -0.0009291089973285
  0.0971196074647399  0.0000000000000000  0.0503061997049926
  0.9514406864777927  0.0841019373162168  0.0503114546461637
  0.9514406864777927  0.9158980626837829  0.0503114546461637

  0.00000000E+00  0.00000000E+00  0.00000000E+00
  0.00000000E+00  0.00000000E+00  0.00000000E+00
  0.00000000E+00  0.00000000E+00  0.00000000E+00
  0.00000000E+00  0.00000000E+00  0.00000000E+00
