Ca4HfO6                             
   1.0000000000000000     
     6.7380182229602594   -0.0911129585195579   -0.0899061326613793
    -0.0000519997845219    6.7386342192999837   -0.0899061326778161
    -0.0000519997858629   -0.0000513017652685    6.7392339513880488
   Ca   Hf   O 
     8     2    12
Direct
  0.2500000000000000  0.2500000000000000  0.2500000000000000
  0.7500000000000000  0.7500000000000000  0.7500000000000000
  0.2500000000000000  0.5974637760147601  0.9025362239852399
  0.9025362239852541  0.2500000000000000  0.5974637760147601
  0.5974637760147459  0.9025362239852399  0.2500000000000000
  0.7500000000000000  0.4025362239852469  0.0974637760147530
  0.0974637760147459  0.7500000000000000  0.4025362239852469
  0.4025362239852611  0.0974637760147601  0.7500000000000000
 -0.0000000000000000 -0.0000000000000000  0.0000000000000000
  0.5000000000000000  0.5000000000000000  0.5000000000000000
  0.5499569101173826  0.2029758481183383  0.4260785865151884
  0.4260785865152097  0.5499569101172547  0.2029758481182672
  0.2029758481181465  0.4260785865152665  0.5499569101173186
  0.9500430898826245  0.0739214214847982  0.2970241368817493
  0.2970241368818488  0.9500430898827098  0.0739214214847555
  0.0739214214847840  0.2970241368816285  0.9500430898827098
  0.4500430898826176  0.7970241368816570  0.5739214134848117
  0.5739214134847904  0.4500430898827455  0.7970241368817280
  0.7970241368818488  0.5739214134847336  0.4500430898826815
  0.0499569211173727  0.9260785865152025  0.7029758631182507
  0.9260785865152167  0.7029758631183715  0.0499569211172874
  0.7029758631181512  0.0499569211172874  0.9260785865152451

  0.00000000E+00  0.00000000E+00  0.00000000E+00
  0.00000000E+00  0.00000000E+00  0.00000000E+00
  0.00000000E+00  0.00000000E+00  0.00000000E+00
  0.00000000E+00  0.00000000E+00  0.00000000E+00
  0.00000000E+00  0.00000000E+00  0.00000000E+00
  0.00000000E+00  0.00000000E+00  0.00000000E+00
  0.00000000E+00  0.00000000E+00  0.00000000E+00
  0.00000000E+00  0.00000000E+00  0.00000000E+00
  0.00000000E+00  0.00000000E+00  0.00000000E+00
  0.00000000E+00  0.00000000E+00  0.00000000E+00
  0.00000000E+00  0.00000000E+00  0.00000000E+00
  0.00000000E+00  0.00000000E+00  0.00000000E+00
  0.00000000E+00  0.00000000E+00  0.00000000E+00
  0.00000000E+00  0.00000000E+00  0.00000000E+00
  0.00000000E+00  0.00000000E+00  0.00000000E+00
  0.00000000E+00  0.00000000E+00  0.00000000E+00
  0.00000000E+00  0.00000000E+00  0.00000000E+00
  0.00000000E+00  0.00000000E+00  0.00000000E+00
  0.00000000E+00  0.00000000E+00  0.00000000E+00
  0.00000000E+00  0.00000000E+00  0.00000000E+00
  0.00000000E+00  0.00000000E+00  0.00000000E+00
  0.00000000E+00  0.00000000E+00  0.00000000E+00
