Cs4GeI6                             
   1.0000000000000000     
    10.4943921400339253    0.0267259500839900    0.0263719546899457
     0.1685370328671071   10.4930727592970712    0.0263719546888024
     0.1685370328673017    0.1662747292667009   10.4917884141433699
   Cs   Ge   I 
     8     2    12
Direct
  0.2500000000000000  0.2500000000000000  0.2500000000000000
  0.7500000000000000  0.7500000000000000  0.7500000000000000
  0.2500000000000000  0.6269867427242378  0.8730132572757622
  0.8730132572757622  0.2500000000000000  0.6269867427242378
  0.6269867427242378  0.8730132572757622  0.2500000000000000
  0.7500000000000000  0.3730132572757621  0.1269867427242379
  0.1269867427242379  0.7500000000000000  0.3730132572757621
  0.3730132572757621  0.1269867427242379  0.7500000000000000
  0.0000000000000000 -0.0000000000000000 -0.0000000000000000
  0.5000000000000000  0.5000000000000000  0.5000000000000000
0.558211974	0.228091847	0.433966522
0.433966522	0.558211974	0.228091847
0.228091847	0.433966522	0.558211974
-0.058211974	0.066033486	0.271908139
0.271908139	-0.058211974	0.066033486
0.066033486	0.271908139	-0.058211974
0.441788026	0.771908139	0.566033478
0.566033478	0.441788026	0.771908139
0.771908139	0.566033478	0.441788026
0.058211985	-0.066033478	-0.271908139
-0.066033478	-0.271908139	0.058211985
-0.271908139	0.058211985	-0.066033478

  0.00000000E+00  0.00000000E+00  0.00000000E+00
  0.00000000E+00  0.00000000E+00  0.00000000E+00
  0.00000000E+00  0.00000000E+00  0.00000000E+00
  0.00000000E+00  0.00000000E+00  0.00000000E+00
  0.00000000E+00  0.00000000E+00  0.00000000E+00
  0.00000000E+00  0.00000000E+00  0.00000000E+00
  0.00000000E+00  0.00000000E+00  0.00000000E+00
  0.00000000E+00  0.00000000E+00  0.00000000E+00
  0.00000000E+00  0.00000000E+00  0.00000000E+00
  0.00000000E+00  0.00000000E+00  0.00000000E+00
  0.00000000E+00  0.00000000E+00  0.00000000E+00
  0.00000000E+00  0.00000000E+00  0.00000000E+00
  0.00000000E+00  0.00000000E+00  0.00000000E+00
  0.00000000E+00  0.00000000E+00  0.00000000E+00
  0.00000000E+00  0.00000000E+00  0.00000000E+00
  0.00000000E+00  0.00000000E+00  0.00000000E+00
  0.00000000E+00  0.00000000E+00  0.00000000E+00
  0.00000000E+00  0.00000000E+00  0.00000000E+00
  0.00000000E+00  0.00000000E+00  0.00000000E+00
  0.00000000E+00  0.00000000E+00  0.00000000E+00
  0.00000000E+00  0.00000000E+00  0.00000000E+00
  0.00000000E+00  0.00000000E+00  0.00000000E+00
