Cs4PbBr6                             
   1.0000000000000000     
    10.0133230051573587   -0.0015164773666343   -0.0014963910459891
     0.1337963685170963   10.0124291975298316   -0.0014963910490335
     0.1337963685170725    0.1320003952522919   10.0115591478594013
   Cs   Pb   Br
     8     2    12
Direct
  0.2500000000000000  0.2500000000000000  0.2500000000000000
  0.7500000000000000  0.7500000000000000  0.7500000000000000
  0.2500000000000000  0.6260663444711376  0.8739336555288624
  0.8739336555288624  0.2500000000000000  0.6260663444711376
  0.6260663444711376  0.8739336555288624  0.2500000000000000
  0.7500000000000000  0.3739336555288622  0.1260663444711377
  0.1260663444711377  0.7500000000000000  0.3739336555288622
  0.3739336555288622  0.1260663444711377  0.7500000000000000
  0.0000000000000000 -0.0000000000000000  0.0000000000000000
  0.5000000000000000  0.5000000000000000  0.5000000000000000
  0.5601426841617138  0.2078340796042251  0.4282466332148948
  0.4282466332148948  0.5601426841617138  0.2078340796042251
  0.2078340796042322  0.4282466332148948  0.5601426841617138
  0.9398573158382862  0.0717533747851058  0.2921659053957701
  0.2921659053957701  0.9398573158382862  0.0717533747851058
  0.0717533747851058  0.2921659053957701  0.9398573158382862
  0.4398573158382864  0.7921659053957703  0.5717533667851054
  0.5717533667851054  0.4398573158382864  0.7921659053957703
  0.7921659053957703  0.5717533667851125  0.4398573158382864
  0.0601426951617110  0.9282466332148946  0.7078340946042297
  0.9282466332148946  0.7078340946042297  0.0601426951617110
  0.7078340946042297  0.0601426951617110  0.9282466332148946

  0.00000000E+00  0.00000000E+00  0.00000000E+00
  0.00000000E+00  0.00000000E+00  0.00000000E+00
  0.00000000E+00  0.00000000E+00  0.00000000E+00
  0.00000000E+00  0.00000000E+00  0.00000000E+00
  0.00000000E+00  0.00000000E+00  0.00000000E+00
  0.00000000E+00  0.00000000E+00  0.00000000E+00
  0.00000000E+00  0.00000000E+00  0.00000000E+00
  0.00000000E+00  0.00000000E+00  0.00000000E+00
  0.00000000E+00  0.00000000E+00  0.00000000E+00
  0.00000000E+00  0.00000000E+00  0.00000000E+00
  0.00000000E+00  0.00000000E+00  0.00000000E+00
  0.00000000E+00  0.00000000E+00  0.00000000E+00
  0.00000000E+00  0.00000000E+00  0.00000000E+00
  0.00000000E+00  0.00000000E+00  0.00000000E+00
  0.00000000E+00  0.00000000E+00  0.00000000E+00
  0.00000000E+00  0.00000000E+00  0.00000000E+00
  0.00000000E+00  0.00000000E+00  0.00000000E+00
  0.00000000E+00  0.00000000E+00  0.00000000E+00
  0.00000000E+00  0.00000000E+00  0.00000000E+00
  0.00000000E+00  0.00000000E+00  0.00000000E+00
  0.00000000E+00  0.00000000E+00  0.00000000E+00
  0.00000000E+00  0.00000000E+00  0.00000000E+00
