RbBiCl4                            
   1.0000000000000000     
     5.5180841843212169    0.0000000000000000    0.0000000000000000
     0.0000000000000000   21.1147796260681311   -0.0000000000000000
     0.0000000000000000   -0.0000000000000000    7.7712530789749010
   Rb   Bi   Cl
     4     4    16
Direct
 -0.0000000000000000  0.3217075640515945  0.7500000000000000
 -0.0000000000000000  0.6782924059484102  0.2500000000000000
  0.5000000000000000  0.8217075940515898  0.7500000000000000
  0.5000000000000000  0.1782924359484056  0.2500000000000000
  0.0000000000000000  0.0943721750542060  0.7500000000000000
  0.0000000000000000  0.9056278469458029  0.2500000000000000
  0.5000000000000000  0.5943721530541971  0.7500000000000000
  0.5000000000000000  0.4056278169458004  0.2500000000000000
 -0.0000000000000000  0.1827355545933106  0.5086881196022357
 -0.0000000000000000  0.8172644754066917  0.4913118803977641
  0.0000000000000000  0.8172644754066917  0.0086881196022357
 -0.0000000000000000  0.1827355545933106  0.9913118803977643
  0.5000000000000000  0.6827355245933083  0.5086881196022357
  0.5000000000000000  0.3172644454066895  0.4913118803977641
  0.5000000000000000  0.3172644454066895  0.0086881196022357
  0.5000000000000000  0.6827355245933083  0.9913118803977643
 -0.0000000000000000  0.0000000000000000 -0.0000000000000000
 -0.0000000000000000  0.0000000000000000  0.5000000000000000
  0.5000000000000000  0.5000000000000000 -0.0000000000000000
  0.5000000000000000  0.5000000000000000  0.5000000000000000
 -0.0000000000000000  0.4013364430929950  0.2500000000000000
 -0.0000000000000000  0.5986635269070097  0.7500000000000000
  0.5000000000000000  0.9013364730929903  0.2500000000000000
  0.5000000000000000  0.0986635569070050  0.7500000000000000

  0.00000000E+00  0.00000000E+00  0.00000000E+00
  0.00000000E+00  0.00000000E+00  0.00000000E+00
  0.00000000E+00  0.00000000E+00  0.00000000E+00
  0.00000000E+00  0.00000000E+00  0.00000000E+00
  0.00000000E+00  0.00000000E+00  0.00000000E+00
  0.00000000E+00  0.00000000E+00  0.00000000E+00
  0.00000000E+00  0.00000000E+00  0.00000000E+00
  0.00000000E+00  0.00000000E+00  0.00000000E+00
  0.00000000E+00  0.00000000E+00  0.00000000E+00
  0.00000000E+00  0.00000000E+00  0.00000000E+00
  0.00000000E+00  0.00000000E+00  0.00000000E+00
  0.00000000E+00  0.00000000E+00  0.00000000E+00
  0.00000000E+00  0.00000000E+00  0.00000000E+00
  0.00000000E+00  0.00000000E+00  0.00000000E+00
  0.00000000E+00  0.00000000E+00  0.00000000E+00
  0.00000000E+00  0.00000000E+00  0.00000000E+00
  0.00000000E+00  0.00000000E+00  0.00000000E+00
  0.00000000E+00  0.00000000E+00  0.00000000E+00
  0.00000000E+00  0.00000000E+00  0.00000000E+00
  0.00000000E+00  0.00000000E+00  0.00000000E+00
  0.00000000E+00  0.00000000E+00  0.00000000E+00
  0.00000000E+00  0.00000000E+00  0.00000000E+00
  0.00000000E+00  0.00000000E+00  0.00000000E+00
  0.00000000E+00  0.00000000E+00  0.00000000E+00
