Ba2ZrO4                              
   1.0000000000000000     
     4.2194603813915581    0.0000000000000000    0.0000000000000000
    -0.0000000000000000    4.2194603813915581   -0.0000000000000000
     0.0000000000000000    0.0000000000000000   13.5786670136550196
   Ba   Zr   O 
     4     2     8
Direct
  0.0000000000000000  0.0000000000000000  0.3528265628139126
 -0.0000000000000000 -0.0000000000000000  0.6471734371860873
  0.5000000000000000  0.5000000000000000  0.8528265628139127
  0.5000000000000000  0.5000000000000000  0.1471734371860874
  0.0000000000000000  0.0000000000000000  0.0000000000000000
  0.5000000000000000  0.5000000000000000  0.5000000000000000
 -0.0000000000000000 -0.0000000000000000  0.1568113460042931
  0.0000000000000000  0.0000000000000000  0.8431886539957069
  0.5000000000000000  0.5000000000000000  0.6568113460042931
  0.5000000000000000  0.5000000000000000  0.3431886539957069
  0.0000000000000000  0.5000000000000000  0.0000000000000000
  0.5000000000000000  0.0000000000000000  0.0000000000000000
  0.5000000000000000  0.0000000000000000  0.5000000000000000
  0.0000000000000000  0.5000000000000000  0.5000000000000000

  0.00000000E+00  0.00000000E+00  0.00000000E+00
  0.00000000E+00  0.00000000E+00  0.00000000E+00
  0.00000000E+00  0.00000000E+00  0.00000000E+00
  0.00000000E+00  0.00000000E+00  0.00000000E+00
  0.00000000E+00  0.00000000E+00  0.00000000E+00
  0.00000000E+00  0.00000000E+00  0.00000000E+00
  0.00000000E+00  0.00000000E+00  0.00000000E+00
  0.00000000E+00  0.00000000E+00  0.00000000E+00
  0.00000000E+00  0.00000000E+00  0.00000000E+00
  0.00000000E+00  0.00000000E+00  0.00000000E+00
  0.00000000E+00  0.00000000E+00  0.00000000E+00
  0.00000000E+00  0.00000000E+00  0.00000000E+00
  0.00000000E+00  0.00000000E+00  0.00000000E+00
  0.00000000E+00  0.00000000E+00  0.00000000E+00
