RbSbBr4                            
   1.0000000000000000     
     5.6580690941470024    0.0000000000000000    0.0000000000000000
     0.0000000000000000   22.1163404619570159    0.0000000000000000
     0.0000000000000000    0.0000000000000000    7.9490854470089651
   Rb   Sb   Br
     4     4    16
Direct
 -0.0000000000000000  0.4054515056648511  0.7500000000000000
  0.0000000000000000  0.5945484643351534  0.2500000000000000
  0.5000000000000000  0.9054515356648466  0.7500000000000000
  0.5000000000000000  0.0945484943351489  0.2500000000000000
 -0.0000000000000000  0.1015380221432741  0.7500000000000000
 -0.0000000000000000  0.8984619998567278  0.2500000000000000
  0.5000000000000000  0.6015380001432722  0.7500000000000000
  0.5000000000000000  0.3984619698567253  0.2500000000000000
  0.0000000000000000  0.1800000963830491  0.4998212643711098
  0.0000000000000000  0.8199999336169532  0.5001787356288900
 -0.0000000000000000  0.8199999336169532  0.9998212643711100
 -0.0000000000000000  0.1800000963830491  0.0001787356288901
  0.5000000000000000  0.6800000663830468  0.4998212643711098
  0.5000000000000000  0.3199999036169509  0.5001787356288900
  0.5000000000000000  0.3199999036169509  0.9998212643711100
  0.5000000000000000  0.6800000663830468  0.0001787356288901
 -0.0000000000000000 -0.0000000000000000  0.0000000000000000
 -0.0000000000000000 -0.0000000000000000  0.5000000000000000
  0.5000000000000000  0.5000000000000000  0.0000000000000000
  0.5000000000000000  0.5000000000000000  0.5000000000000000
 -0.0000000000000000  0.4145043041280140  0.2500000000000000
 -0.0000000000000000  0.5854956658719905  0.7500000000000000
  0.5000000000000000  0.9145043341280095  0.2500000000000000
  0.5000000000000000  0.0854956958719858  0.7500000000000000

  0.00000000E+00  0.00000000E+00  0.00000000E+00
  0.00000000E+00  0.00000000E+00  0.00000000E+00
  0.00000000E+00  0.00000000E+00  0.00000000E+00
  0.00000000E+00  0.00000000E+00  0.00000000E+00
  0.00000000E+00  0.00000000E+00  0.00000000E+00
  0.00000000E+00  0.00000000E+00  0.00000000E+00
  0.00000000E+00  0.00000000E+00  0.00000000E+00
  0.00000000E+00  0.00000000E+00  0.00000000E+00
  0.00000000E+00  0.00000000E+00  0.00000000E+00
  0.00000000E+00  0.00000000E+00  0.00000000E+00
  0.00000000E+00  0.00000000E+00  0.00000000E+00
  0.00000000E+00  0.00000000E+00  0.00000000E+00
  0.00000000E+00  0.00000000E+00  0.00000000E+00
  0.00000000E+00  0.00000000E+00  0.00000000E+00
  0.00000000E+00  0.00000000E+00  0.00000000E+00
  0.00000000E+00  0.00000000E+00  0.00000000E+00
  0.00000000E+00  0.00000000E+00  0.00000000E+00
  0.00000000E+00  0.00000000E+00  0.00000000E+00
  0.00000000E+00  0.00000000E+00  0.00000000E+00
  0.00000000E+00  0.00000000E+00  0.00000000E+00
  0.00000000E+00  0.00000000E+00  0.00000000E+00
  0.00000000E+00  0.00000000E+00  0.00000000E+00
  0.00000000E+00  0.00000000E+00  0.00000000E+00
  0.00000000E+00  0.00000000E+00  0.00000000E+00
