WO3                                     
   1.0000000000000000     
     3.8286318602761886   -0.0000000000000000    0.0000000000000000
    -0.0000000000000000    3.8286318602761886    0.0000000000000000
    -0.0000000000000000   -0.0000000000000000    3.8286318602761886
   W    O 
     1     3
Direct
  0.5000000000000000  0.5000000000000000  0.5000000000000000
  0.5000000000000000  0.5000000000000000  0.0000000000000000
  0.0000000000000000  0.5000000000000000  0.5000000000000000
  0.5000000000000000  0.0000000000000000  0.5000000000000000

  0.00000000E+00  0.00000000E+00  0.00000000E+00
  0.00000000E+00  0.00000000E+00  0.00000000E+00
  0.00000000E+00  0.00000000E+00  0.00000000E+00
  0.00000000E+00  0.00000000E+00  0.00000000E+00
