CsBiCl4                            
   1.0000000000000000     
     5.5604082630613041    0.0000000000000000    0.0000000000000000
     0.0000000000000000   20.3812410864362583   -0.0000000000000000
     0.0000000000000000    0.0000000000000000    8.0182172959753721
   Cs   Bi   Cl
     4     4    16
Direct
 -0.0000000000000000  0.3542298484669409  0.7500000000000000
 -0.0000000000000000  0.6457701215330637  0.2500000000000000
  0.5000000000000000  0.8542298784669363  0.7500000000000000
  0.5000000000000000  0.1457701515330590  0.2500000000000000
 -0.0000000000000000  0.0979694166380379  0.7500000000000000
 -0.0000000000000000  0.9020306053619640  0.2500000000000000
  0.5000000000000000  0.5979693946380360  0.7500000000000000
  0.5000000000000000  0.4020305753619616  0.2500000000000000
 -0.0000000000000000  0.1867333254968838  0.5166962433980916
  0.0000000000000000  0.8132667045031187  0.4833037566019081
 -0.0000000000000000  0.8132667045031187  0.0166962433980918
  0.0000000000000000  0.1867333254968838  0.9833037566019084
  0.5000000000000000  0.6867332954968813  0.5166962433980916
  0.5000000000000000  0.3132666745031162  0.4833037566019081
  0.5000000000000000  0.3132666745031162  0.0166962433980918
  0.5000000000000000  0.6867332954968813  0.9833037566019084
 -0.0000000000000000  0.0000000000000000 -0.0000000000000000
 -0.0000000000000000  0.0000000000000000  0.5000000000000000
  0.5000000000000000  0.5000000000000000 -0.0000000000000000
  0.5000000000000000  0.5000000000000000  0.5000000000000000
  0.0000000000000000  0.4086837043243775  0.2500000000000000
  0.0000000000000000  0.5913162656756201  0.7500000000000000
  0.5000000000000000  0.9086837343243799  0.2500000000000000
  0.5000000000000000  0.0913162956756225  0.7500000000000000

  0.00000000E+00  0.00000000E+00  0.00000000E+00
  0.00000000E+00  0.00000000E+00  0.00000000E+00
  0.00000000E+00  0.00000000E+00  0.00000000E+00
  0.00000000E+00  0.00000000E+00  0.00000000E+00
  0.00000000E+00  0.00000000E+00  0.00000000E+00
  0.00000000E+00  0.00000000E+00  0.00000000E+00
  0.00000000E+00  0.00000000E+00  0.00000000E+00
  0.00000000E+00  0.00000000E+00  0.00000000E+00
  0.00000000E+00  0.00000000E+00  0.00000000E+00
  0.00000000E+00  0.00000000E+00  0.00000000E+00
  0.00000000E+00  0.00000000E+00  0.00000000E+00
  0.00000000E+00  0.00000000E+00  0.00000000E+00
  0.00000000E+00  0.00000000E+00  0.00000000E+00
  0.00000000E+00  0.00000000E+00  0.00000000E+00
  0.00000000E+00  0.00000000E+00  0.00000000E+00
  0.00000000E+00  0.00000000E+00  0.00000000E+00
  0.00000000E+00  0.00000000E+00  0.00000000E+00
  0.00000000E+00  0.00000000E+00  0.00000000E+00
  0.00000000E+00  0.00000000E+00  0.00000000E+00
  0.00000000E+00  0.00000000E+00  0.00000000E+00
  0.00000000E+00  0.00000000E+00  0.00000000E+00
  0.00000000E+00  0.00000000E+00  0.00000000E+00
  0.00000000E+00  0.00000000E+00  0.00000000E+00
  0.00000000E+00  0.00000000E+00  0.00000000E+00
