Cs3Sb2Cl9                             
   1.0000000000000000     
     7.8083452149543255   -0.0000000000000000    0.0000000000000000
    -3.9041726074771628    6.7622253177484026    0.0000000000000000
     0.0000000000000000   -0.0000000000000000    9.4880226970033039
   Cs   Sb   Cl
     3     2     9
Direct
  0.3333333429999996  0.6666666870000029  0.3327965808180491
  0.6666666870000029  0.3333333429999996  0.6672034491819533
 -0.0000000000000000  0.0000000000000000 -0.0000000000000000
  0.3333333429999996  0.6666666870000029  0.8189371093735637
  0.6666666870000029  0.3333333429999996  0.1810628906264364
  0.1728123569940443  0.8161981704331247  0.6704005700794303
  0.1838018295668753  0.3566142015609102  0.6704005700794303
  0.6433857984390898  0.8271876280059580  0.6704005700794303
  0.8161981704331247  0.1728123569940443  0.3295994299205694
  0.3566142015609102  0.1838018295668753  0.3295994299205694
  0.8271876280059580  0.6433857984390898  0.3295994299205694
 -0.0000000000000000  0.4904149773366518 -0.0000000000000000
  0.5095850226633482  0.5095850226633482 -0.0000000000000000
  0.4904149773366518  0.0000000000000000 -0.0000000000000000

  0.00000000E+00  0.00000000E+00  0.00000000E+00
  0.00000000E+00  0.00000000E+00  0.00000000E+00
  0.00000000E+00  0.00000000E+00  0.00000000E+00
  0.00000000E+00  0.00000000E+00  0.00000000E+00
  0.00000000E+00  0.00000000E+00  0.00000000E+00
  0.00000000E+00  0.00000000E+00  0.00000000E+00
  0.00000000E+00  0.00000000E+00  0.00000000E+00
  0.00000000E+00  0.00000000E+00  0.00000000E+00
  0.00000000E+00  0.00000000E+00  0.00000000E+00
  0.00000000E+00  0.00000000E+00  0.00000000E+00
  0.00000000E+00  0.00000000E+00  0.00000000E+00
  0.00000000E+00  0.00000000E+00  0.00000000E+00
  0.00000000E+00  0.00000000E+00  0.00000000E+00
  0.00000000E+00  0.00000000E+00  0.00000000E+00
