Sr3Ti2O7                             
   1.0000000000000000     
     3.9289531644404243    0.0000000000000000   -0.0000000000000000
     0.0000000000000000    3.9289531644404243    0.0000000000000000
    -0.0000000000000000    0.0000000000000000   20.4546534819777364
   Sr   Ti   O 
     6     4    14
Direct
  0.0000000000000000  0.0000000000000000  0.3156651377228932
 -0.0000000000000000  0.0000000000000000  0.6843348622771067
  0.5000000000000000  0.5000000000000000  0.8156651377228933
  0.5000000000000000  0.5000000000000000  0.1843348622771068
  0.0000000000000000  0.0000000000000000  0.5000000000000000
  0.5000000000000000  0.5000000000000000  0.0000000000000000
  0.0000000000000000 -0.0000000000000000  0.0977110202172793
 -0.0000000000000000 -0.0000000000000000  0.9022889717827201
  0.5000000000000000  0.5000000000000000  0.5977110282172799
  0.5000000000000000  0.5000000000000000  0.4022889717827201
  0.0000000000000000  0.5000000000000000  0.0962924428991427
 -0.0000000000000000  0.5000000000000000  0.9037075721008552
  0.5000000000000000  0.0000000000000000  0.0962924428991427
  0.5000000000000000  0.0000000000000000  0.9037075721008552
  0.5000000000000000  0.0000000000000000  0.5962924278991448
  0.5000000000000000  0.0000000000000000  0.4037075721008550
  0.0000000000000000  0.5000000000000000  0.5962924278991448
 -0.0000000000000000  0.5000000000000000  0.4037075721008550
 -0.0000000000000000 -0.0000000000000000  0.1938289811390133
  0.0000000000000000  0.0000000000000000  0.8061710038609819
  0.5000000000000000  0.5000000000000000  0.6938289961390181
  0.5000000000000000  0.5000000000000000  0.3061710038609747
  0.0000000000000000  0.0000000000000000  0.0000000000000000
  0.5000000000000000  0.5000000000000000  0.5000000000000000

  0.00000000E+00  0.00000000E+00  0.00000000E+00
  0.00000000E+00  0.00000000E+00  0.00000000E+00
  0.00000000E+00  0.00000000E+00  0.00000000E+00
  0.00000000E+00  0.00000000E+00  0.00000000E+00
  0.00000000E+00  0.00000000E+00  0.00000000E+00
  0.00000000E+00  0.00000000E+00  0.00000000E+00
  0.00000000E+00  0.00000000E+00  0.00000000E+00
  0.00000000E+00  0.00000000E+00  0.00000000E+00
  0.00000000E+00  0.00000000E+00  0.00000000E+00
  0.00000000E+00  0.00000000E+00  0.00000000E+00
  0.00000000E+00  0.00000000E+00  0.00000000E+00
  0.00000000E+00  0.00000000E+00  0.00000000E+00
  0.00000000E+00  0.00000000E+00  0.00000000E+00
  0.00000000E+00  0.00000000E+00  0.00000000E+00
  0.00000000E+00  0.00000000E+00  0.00000000E+00
  0.00000000E+00  0.00000000E+00  0.00000000E+00
  0.00000000E+00  0.00000000E+00  0.00000000E+00
  0.00000000E+00  0.00000000E+00  0.00000000E+00
  0.00000000E+00  0.00000000E+00  0.00000000E+00
  0.00000000E+00  0.00000000E+00  0.00000000E+00
  0.00000000E+00  0.00000000E+00  0.00000000E+00
  0.00000000E+00  0.00000000E+00  0.00000000E+00
  0.00000000E+00  0.00000000E+00  0.00000000E+00
  0.00000000E+00  0.00000000E+00  0.00000000E+00
