Geometry optimization
ISMEAR=0
LWAVE = .FALSE.
LCHARG = .FALSE.
PREC= Normal
ENCUT = 450
EDIFF=1E-5
EDIFFG=-0.5E-3
ISIF=2
IBRION=2
POTIM=0.25
NSW=15
