AsBr3                                   
   1.0000000000000000     
    20.0000000000000000    0.0000000000000000    0.0000000000000000
     0.0000000000000000   20.0000000000000000    0.0000000000000000
     0.0000000000000000    0.0000000000000000   20.0000000000000000
   As   Br
     1     3
Direct
  0.0000015501585971  0.0000000000000000  0.9974828194498780
  0.1054622428135412  0.0000000000000000  0.0508364490136537
  0.9472681035139381  0.0913289137303997  0.0508403657682298
  0.9472681035139381  0.9086710862696001  0.0508403657682298

  0.00000000E+00  0.00000000E+00  0.00000000E+00
  0.00000000E+00  0.00000000E+00  0.00000000E+00
  0.00000000E+00  0.00000000E+00  0.00000000E+00
  0.00000000E+00  0.00000000E+00  0.00000000E+00
