Cs2SnI4                              
   1.0000000000000000     
     6.2568941979898138    0.0000000000000000    0.0000000000000000
     0.0000000000000000    6.2568941979898138   -0.0000000000000000
    -0.0000000000000000    0.0000000000000000   19.4967571616400122
   Cs   Sn   I 
     4     2     8
Direct
  0.0000000000000000 -0.0000000000000000  0.3610079043102853
 -0.0000000000000000 -0.0000000000000000  0.6389920956897147
  0.5000000000000000  0.5000000000000000  0.8610079043102853
  0.5000000000000000  0.5000000000000000  0.1389920956897147
  0.0000000000000000  0.0000000000000000 -0.0000000000000000
  0.5000000000000000  0.5000000000000000  0.5000000000000000
 -0.0000000000000000  0.0000000000000000  0.1635080591071790
  0.0000000000000000 -0.0000000000000000  0.8364919408928211
  0.5000000000000000  0.5000000000000000  0.6635080591071789
  0.5000000000000000  0.5000000000000000  0.3364919408928210
  0.0000000000000000  0.5000000000000000 -0.0000000000000000
  0.5000000000000000  0.0000000000000000 -0.0000000000000000
  0.5000000000000000  0.0000000000000000  0.5000000000000000
  0.0000000000000000  0.5000000000000000  0.5000000000000000

  0.00000000E+00  0.00000000E+00  0.00000000E+00
  0.00000000E+00  0.00000000E+00  0.00000000E+00
  0.00000000E+00  0.00000000E+00  0.00000000E+00
  0.00000000E+00  0.00000000E+00  0.00000000E+00
  0.00000000E+00  0.00000000E+00  0.00000000E+00
  0.00000000E+00  0.00000000E+00  0.00000000E+00
  0.00000000E+00  0.00000000E+00  0.00000000E+00
  0.00000000E+00  0.00000000E+00  0.00000000E+00
  0.00000000E+00  0.00000000E+00  0.00000000E+00
  0.00000000E+00  0.00000000E+00  0.00000000E+00
  0.00000000E+00  0.00000000E+00  0.00000000E+00
  0.00000000E+00  0.00000000E+00  0.00000000E+00
  0.00000000E+00  0.00000000E+00  0.00000000E+00
  0.00000000E+00  0.00000000E+00  0.00000000E+00
