Ca4TiO6                             
   1.0000000000000000     
     6.5731737407211623   -0.0686804301690054   -0.0677707316980414
     0.0201508927853901    6.5735016520002114   -0.0677707317147391
     0.0201508927837102    0.0198804036526195    6.5738209292926291
   Ca   Ti   O 
     8     2    12
Direct
  0.2500000000000000  0.2500000000000000  0.2500000000000000
  0.7500000000000000  0.7500000000000000  0.7500000000000000
  0.2500000000000000  0.6092142411593755  0.8907857588406316
  0.8907857588406316  0.2500000000000000  0.6092142411593684
  0.6092142411593684  0.8907857588406245  0.2500000000000000
  0.7500000000000000  0.3907857588406244  0.1092142411593685
  0.1092142411593685  0.7500000000000000  0.3907857588406315
  0.3907857588406315  0.1092142411593756  0.7500000000000000
 -0.0000000000000000 -0.0000000000000000 -0.0000000000000000
  0.5000000000000000  0.5000000000000000  0.5000000000000000
  0.5542409455764776  0.2113583188764137  0.4256062166358857
  0.4256062166358928  0.5542409455763924  0.2113583188763782
  0.2113583188763071  0.4256062166359283  0.5542409455764350
  0.9457590544235295  0.0743937913641078  0.2886416661236312
  0.2886416661236952  0.9457590544235863  0.0743937913640865
  0.0743937913641007  0.2886416661235602  0.9457590544235792
  0.4457590544235224  0.7886416661235814  0.5743937833641143
  0.5743937833641072  0.4457590544236076  0.7886416661236170
  0.7886416661236880  0.5743937833640717  0.4457590544235650
  0.0542409565764679  0.9256062166358928  0.7113583338763688
  0.9256062166358999  0.7113583338764399  0.0542409565764181
  0.7113583338763049  0.0542409565764110  0.9256062166359141

  0.00000000E+00  0.00000000E+00  0.00000000E+00
  0.00000000E+00  0.00000000E+00  0.00000000E+00
  0.00000000E+00  0.00000000E+00  0.00000000E+00
  0.00000000E+00  0.00000000E+00  0.00000000E+00
  0.00000000E+00  0.00000000E+00  0.00000000E+00
  0.00000000E+00  0.00000000E+00  0.00000000E+00
  0.00000000E+00  0.00000000E+00  0.00000000E+00
  0.00000000E+00  0.00000000E+00  0.00000000E+00
  0.00000000E+00  0.00000000E+00  0.00000000E+00
  0.00000000E+00  0.00000000E+00  0.00000000E+00
  0.00000000E+00  0.00000000E+00  0.00000000E+00
  0.00000000E+00  0.00000000E+00  0.00000000E+00
  0.00000000E+00  0.00000000E+00  0.00000000E+00
  0.00000000E+00  0.00000000E+00  0.00000000E+00
  0.00000000E+00  0.00000000E+00  0.00000000E+00
  0.00000000E+00  0.00000000E+00  0.00000000E+00
  0.00000000E+00  0.00000000E+00  0.00000000E+00
  0.00000000E+00  0.00000000E+00  0.00000000E+00
  0.00000000E+00  0.00000000E+00  0.00000000E+00
  0.00000000E+00  0.00000000E+00  0.00000000E+00
  0.00000000E+00  0.00000000E+00  0.00000000E+00
  0.00000000E+00  0.00000000E+00  0.00000000E+00
