SbCl3                                   
   1.0000000000000000     
    20.0000000000000000    0.0000000000000000    0.0000000000000000
     0.0000000000000000   20.0000000000000000    0.0000000000000000
     0.0000000000000000    0.0000000000000000   20.0000000000000000
   Sb   Cl
     1     3
Direct
 -0.0000018945193177  0.0000000000000000  0.9940722476636742
  0.1030983631057175  0.0000000000000000  0.0519728045565034
  0.9484517657068070  0.0892864933462934  0.0519774738899069
  0.9484517657068070  0.9107135066537067  0.0519774738899069

  0.00000000E+00  0.00000000E+00  0.00000000E+00
  0.00000000E+00  0.00000000E+00  0.00000000E+00
  0.00000000E+00  0.00000000E+00  0.00000000E+00
  0.00000000E+00  0.00000000E+00  0.00000000E+00
