Cs4SnBr6                             
   1.0000000000000000     
     9.9813171981702489    0.0042170772701359    0.0041612204745680
     0.1390968966166729    9.9803488338866089    0.0041612204712929
     0.1390968966166904    0.1372297733859990    9.9794062023651975
   Cs   Sn   Br
     8     2    12
Direct
  0.2500000000000000  0.2500000000000000  0.2500000000000000
  0.7500000000000000  0.7500000000000000  0.7500000000000000
  0.2500000000000000  0.6260076816791702  0.8739923183208298
  0.8739923183208298  0.2500000000000000  0.6260076816791702
  0.6260076816791702  0.8739923183208298  0.2500000000000000
  0.7500000000000000  0.3739923183208301  0.1260076816791701
  0.1260076816791701  0.7500000000000000  0.3739923183208301
  0.3739923183208301  0.1260076816791701  0.7500000000000000
  0.0000000000000000  0.0000000000000000  0.0000000000000000
  0.5000000000000000  0.5000000000000000  0.5000000000000000
  0.5602270444395180  0.2109372015734935  0.4286985864708545
  0.4286985864708545  0.5602270444395180  0.2109372015734935
  0.2109372015735006  0.4286985864708474  0.5602270444395180
  0.9397729555604820  0.0713014215291461  0.2890627834265017
  0.2890627834265017  0.9397729555604820  0.0713014215291532
  0.0713014215291461  0.2890627834265017  0.9397729555604820
  0.4397729555604821  0.7890627834265017  0.5713014135291454
  0.5713014135291454  0.4397729555604821  0.7890627834265017
  0.7890627834265017  0.5713014135291454  0.4397729555604821
  0.0602270554395153  0.9286985864708546  0.7109372165734983
  0.9286985864708546  0.7109372165734983  0.0602270554395153
  0.7109372165734983  0.0602270554395153  0.9286985864708546

  0.00000000E+00  0.00000000E+00  0.00000000E+00
  0.00000000E+00  0.00000000E+00  0.00000000E+00
  0.00000000E+00  0.00000000E+00  0.00000000E+00
  0.00000000E+00  0.00000000E+00  0.00000000E+00
  0.00000000E+00  0.00000000E+00  0.00000000E+00
  0.00000000E+00  0.00000000E+00  0.00000000E+00
  0.00000000E+00  0.00000000E+00  0.00000000E+00
  0.00000000E+00  0.00000000E+00  0.00000000E+00
  0.00000000E+00  0.00000000E+00  0.00000000E+00
  0.00000000E+00  0.00000000E+00  0.00000000E+00
  0.00000000E+00  0.00000000E+00  0.00000000E+00
  0.00000000E+00  0.00000000E+00  0.00000000E+00
  0.00000000E+00  0.00000000E+00  0.00000000E+00
  0.00000000E+00  0.00000000E+00  0.00000000E+00
  0.00000000E+00  0.00000000E+00  0.00000000E+00
  0.00000000E+00  0.00000000E+00  0.00000000E+00
  0.00000000E+00  0.00000000E+00  0.00000000E+00
  0.00000000E+00  0.00000000E+00  0.00000000E+00
  0.00000000E+00  0.00000000E+00  0.00000000E+00
  0.00000000E+00  0.00000000E+00  0.00000000E+00
  0.00000000E+00  0.00000000E+00  0.00000000E+00
  0.00000000E+00  0.00000000E+00  0.00000000E+00
