CsBiI4                             
   1.0000000000000000     
     6.1613141154019733    0.0000000000000000    0.0000000000000000
     0.0000000000000000   24.3729800007444126    0.0000000000000000
     0.0000000000000000    0.0000000000000000    8.7072943455296539
   Cs   Bi   I 
     4     4    16
Direct
 -0.0000000000000000  0.4058033459226941  0.7500000000000000
 -0.0000000000000000  0.5941966240773106  0.2500000000000000
  0.5000000000000000  0.9058033759226894  0.7500000000000000
  0.5000000000000000  0.0941966540773059  0.2500000000000000
  0.0000000000000000  0.1014728762328101  0.7500000000000000
  0.0000000000000000  0.8985271457671915  0.2500000000000000
  0.5000000000000000  0.6014728542328085  0.7500000000000000
  0.5000000000000000  0.3985271157671891  0.2500000000000000
  0.0000000000000000  0.1799987649949432  0.4943693231155353
  0.0000000000000000  0.8200012650050592  0.5056306768844647
  0.0000000000000000  0.8200012650050592  0.9943693231155353
  0.0000000000000000  0.1799987649949432  0.0056306768844648
  0.5000000000000000  0.6799987349949408  0.4943693231155353
  0.5000000000000000  0.3200012350050569  0.5056306768844647
  0.5000000000000000  0.3200012350050569  0.9943693231155353
  0.5000000000000000  0.6799987349949408  0.0056306768844648
  0.0000000000000000  0.0000000000000000 -0.0000000000000000
  0.0000000000000000  0.0000000000000000  0.5000000000000000
  0.5000000000000000  0.5000000000000000 -0.0000000000000000
  0.5000000000000000  0.5000000000000000  0.5000000000000000
  0.0000000000000000  0.4221445463744771  0.2500000000000000
  0.0000000000000000  0.5778554236255277  0.7500000000000000
  0.5000000000000000  0.9221445763744723  0.2500000000000000
  0.5000000000000000  0.0778554536255230  0.7500000000000000

  0.00000000E+00  0.00000000E+00  0.00000000E+00
  0.00000000E+00  0.00000000E+00  0.00000000E+00
  0.00000000E+00  0.00000000E+00  0.00000000E+00
  0.00000000E+00  0.00000000E+00  0.00000000E+00
  0.00000000E+00  0.00000000E+00  0.00000000E+00
  0.00000000E+00  0.00000000E+00  0.00000000E+00
  0.00000000E+00  0.00000000E+00  0.00000000E+00
  0.00000000E+00  0.00000000E+00  0.00000000E+00
  0.00000000E+00  0.00000000E+00  0.00000000E+00
  0.00000000E+00  0.00000000E+00  0.00000000E+00
  0.00000000E+00  0.00000000E+00  0.00000000E+00
  0.00000000E+00  0.00000000E+00  0.00000000E+00
  0.00000000E+00  0.00000000E+00  0.00000000E+00
  0.00000000E+00  0.00000000E+00  0.00000000E+00
  0.00000000E+00  0.00000000E+00  0.00000000E+00
  0.00000000E+00  0.00000000E+00  0.00000000E+00
  0.00000000E+00  0.00000000E+00  0.00000000E+00
  0.00000000E+00  0.00000000E+00  0.00000000E+00
  0.00000000E+00  0.00000000E+00  0.00000000E+00
  0.00000000E+00  0.00000000E+00  0.00000000E+00
  0.00000000E+00  0.00000000E+00  0.00000000E+00
  0.00000000E+00  0.00000000E+00  0.00000000E+00
  0.00000000E+00  0.00000000E+00  0.00000000E+00
  0.00000000E+00  0.00000000E+00  0.00000000E+00
