AsCl3                                   
   1.0000000000000000     
    20.0000000000000000    0.0000000000000000    0.0000000000000000
     0.0000000000000000   20.0000000000000000    0.0000000000000000
     0.0000000000000000    0.0000000000000000   20.0000000000000000
   As   Cl
     1     3
Direct
  0.0000010813552219  0.0000000000000000 -0.0009288820025087
  0.9028808116203587  0.0000000000000000  0.0503060361038327
  0.0485590535122062  0.9158983479791651  0.0503114229493337
  0.0485590535122062  0.0841016520208348  0.0503114229493337

  0.00000000E+00  0.00000000E+00  0.00000000E+00
  0.00000000E+00  0.00000000E+00  0.00000000E+00
  0.00000000E+00  0.00000000E+00  0.00000000E+00
  0.00000000E+00  0.00000000E+00  0.00000000E+00
