CsBiBr4                            
   1.0000000000000000     
     5.7899811058472075    0.0000000000000000    0.0000000000000000
     0.0000000000000000   22.3301099173878512   -0.0000000000000000
     0.0000000000000000   -0.0000000000000000    8.1858740138346722
   Cs   Bi   Br
     4     4    16
Direct
  0.0000000000000000  0.3987576125388971  0.7500000000000000
  0.0000000000000000  0.6012423574611075  0.2500000000000000
  0.5000000000000000  0.8987576425388925  0.7500000000000000
  0.5000000000000000  0.1012423874611029  0.2500000000000000
  0.0000000000000000  0.1008770713453080  0.7500000000000000
 -0.0000000000000000  0.8991229506546936  0.2500000000000000
  0.5000000000000000  0.6008770493453064  0.7500000000000000
  0.5000000000000000  0.3991229206546912  0.2500000000000000
 -0.0000000000000000  0.1808888942511486  0.4992586757366701
 -0.0000000000000000  0.8191111357488541  0.5007413242633301
  0.0000000000000000  0.8191111357488541  0.9992586757366699
  0.0000000000000000  0.1808888942511486  0.0007413242633301
  0.5000000000000000  0.6808888642511459  0.4992586757366701
  0.5000000000000000  0.3191111057488513  0.5007413242633301
  0.5000000000000000  0.3191111057488513  0.9992586757366699
  0.5000000000000000  0.6808888642511459  0.0007413242633301
  0.0000000000000000  0.0000000000000000 -0.0000000000000000
  0.0000000000000000  0.0000000000000000  0.5000000000000000
  0.5000000000000000  0.5000000000000000 -0.0000000000000000
  0.5000000000000000  0.5000000000000000  0.5000000000000000
  0.0000000000000000  0.4184693031182344  0.2500000000000000
  0.0000000000000000  0.5815306668817704  0.7500000000000000
  0.5000000000000000  0.9184693331182296  0.2500000000000000
  0.5000000000000000  0.0815306968817656  0.7500000000000000

  0.00000000E+00  0.00000000E+00  0.00000000E+00
  0.00000000E+00  0.00000000E+00  0.00000000E+00
  0.00000000E+00  0.00000000E+00  0.00000000E+00
  0.00000000E+00  0.00000000E+00  0.00000000E+00
  0.00000000E+00  0.00000000E+00  0.00000000E+00
  0.00000000E+00  0.00000000E+00  0.00000000E+00
  0.00000000E+00  0.00000000E+00  0.00000000E+00
  0.00000000E+00  0.00000000E+00  0.00000000E+00
  0.00000000E+00  0.00000000E+00  0.00000000E+00
  0.00000000E+00  0.00000000E+00  0.00000000E+00
  0.00000000E+00  0.00000000E+00  0.00000000E+00
  0.00000000E+00  0.00000000E+00  0.00000000E+00
  0.00000000E+00  0.00000000E+00  0.00000000E+00
  0.00000000E+00  0.00000000E+00  0.00000000E+00
  0.00000000E+00  0.00000000E+00  0.00000000E+00
  0.00000000E+00  0.00000000E+00  0.00000000E+00
  0.00000000E+00  0.00000000E+00  0.00000000E+00
  0.00000000E+00  0.00000000E+00  0.00000000E+00
  0.00000000E+00  0.00000000E+00  0.00000000E+00
  0.00000000E+00  0.00000000E+00  0.00000000E+00
  0.00000000E+00  0.00000000E+00  0.00000000E+00
  0.00000000E+00  0.00000000E+00  0.00000000E+00
  0.00000000E+00  0.00000000E+00  0.00000000E+00
  0.00000000E+00  0.00000000E+00  0.00000000E+00
