Charge density
ISMEAR=0
LORBIT=11
LWAVE = .TRUE.
LCHARG = .TRUE.
PREC= Normal
ENCUT = 450
EDIFF=1E-6
EDIFFG=-0.5E-3
ISIF=3
IBRION=2
POTIM=0.25
NSW = 1
