CsSbCl4                            
   1.0000000000000000     
     5.4168533681559090    0.0000000000000000    0.0000000000000000
     0.0000000000000000   20.7156221657536861    0.0000000000000000
     0.0000000000000000   -0.0000000000000000    7.8309813822267245
   Cs   Sb   Cl
     4     4    16
Direct
 -0.0000000000000000  0.3962820635790813  0.7500000000000000
  0.0000000000000000  0.6037179064209234  0.2500000000000000
  0.5000000000000000  0.8962820935790766  0.7500000000000000
  0.5000000000000000  0.1037179364209187  0.2500000000000000
  0.0000000000000000  0.1000071152784389  0.7500000000000000
 -0.0000000000000000  0.8999929067215630  0.2500000000000000
  0.5000000000000000  0.6000070932784370  0.7500000000000000
  0.5000000000000000  0.3999928767215605  0.2500000000000000
 -0.0000000000000000  0.1806804151121562  0.5158028013462482
  0.0000000000000000  0.8193196148878461  0.4841971986537518
 -0.0000000000000000  0.8193196148878461  0.0158028013462483
  0.0000000000000000  0.1806804151121562  0.9841971986537518
  0.5000000000000000  0.6806803851121539  0.5158028013462482
  0.5000000000000000  0.3193195848878437  0.4841971986537518
  0.5000000000000000  0.3193195848878437  0.0158028013462483
  0.5000000000000000  0.6806803851121539  0.9841971986537518
 -0.0000000000000000 -0.0000000000000000  0.0000000000000000
  0.0000000000000000 -0.0000000000000000  0.5000000000000000
  0.5000000000000000  0.5000000000000000  0.0000000000000000
  0.5000000000000000  0.5000000000000000  0.5000000000000000
 -0.0000000000000000  0.4110433070356308  0.2500000000000000
  0.0000000000000000  0.5889566629643667  0.7500000000000000
  0.5000000000000000  0.9110433370356333  0.2500000000000000
  0.5000000000000000  0.0889566929643692  0.7500000000000000

  0.00000000E+00  0.00000000E+00  0.00000000E+00
  0.00000000E+00  0.00000000E+00  0.00000000E+00
  0.00000000E+00  0.00000000E+00  0.00000000E+00
  0.00000000E+00  0.00000000E+00  0.00000000E+00
  0.00000000E+00  0.00000000E+00  0.00000000E+00
  0.00000000E+00  0.00000000E+00  0.00000000E+00
  0.00000000E+00  0.00000000E+00  0.00000000E+00
  0.00000000E+00  0.00000000E+00  0.00000000E+00
  0.00000000E+00  0.00000000E+00  0.00000000E+00
  0.00000000E+00  0.00000000E+00  0.00000000E+00
  0.00000000E+00  0.00000000E+00  0.00000000E+00
  0.00000000E+00  0.00000000E+00  0.00000000E+00
  0.00000000E+00  0.00000000E+00  0.00000000E+00
  0.00000000E+00  0.00000000E+00  0.00000000E+00
  0.00000000E+00  0.00000000E+00  0.00000000E+00
  0.00000000E+00  0.00000000E+00  0.00000000E+00
  0.00000000E+00  0.00000000E+00  0.00000000E+00
  0.00000000E+00  0.00000000E+00  0.00000000E+00
  0.00000000E+00  0.00000000E+00  0.00000000E+00
  0.00000000E+00  0.00000000E+00  0.00000000E+00
  0.00000000E+00  0.00000000E+00  0.00000000E+00
  0.00000000E+00  0.00000000E+00  0.00000000E+00
  0.00000000E+00  0.00000000E+00  0.00000000E+00
  0.00000000E+00  0.00000000E+00  0.00000000E+00
