SrWO4
   1.0000000000000000     
     3.9243096496353660    0.0000000000000000    0.0000000000000000
     0.0000000000000000   15.2792776238054397    0.0000000000000000
     0.0000000000000000    0.0000000000000000    5.7154897393094597
   Sr   W    O 
     4     4    16
Direct
  0.0000000000000000  0.3216159913507625  0.7500000000000000
 -0.0000000000000000  0.6783839786492420  0.2500000000000000
  0.5000000000000000  0.8216160213507580  0.7500000000000000
  0.5000000000000000  0.1783840086492375  0.2500000000000000
  0.0000000000000000  0.0887574112373150  0.7500000000000000
 -0.0000000000000000  0.9112426107626866  0.2500000000000000
  0.5000000000000000  0.5887573892373134  0.7500000000000000
  0.5000000000000000  0.4112425807626844  0.2500000000000000
 -0.0000000000000000  0.1758990703081947  0.5198069873008491
  0.0000000000000000  0.8241009596918076  0.4801930126991510
 -0.0000000000000000  0.8241009596918076  0.0198069873008490
  0.0000000000000000  0.1758990703081947  0.9801930126991509
  0.5000000000000000  0.6758990403081924  0.5198069873008491
  0.5000000000000000  0.3241009296918124  0.4801930126991510
  0.5000000000000000  0.3241009296918124  0.0198069873008490
  0.5000000000000000  0.6758990403081924  0.9801930126991509
  0.0000000000000000 -0.0000000000000000  0.0000000000000000
  0.0000000000000000 -0.0000000000000000  0.5000000000000000
  0.5000000000000000  0.5000000000000000  0.0000000000000000
  0.5000000000000000  0.5000000000000000  0.5000000000000000
 -0.0000000000000000  0.4162002766137357  0.2500000000000000
  0.0000000000000000  0.5837996933862692  0.7500000000000000
  0.5000000000000000  0.9162003066137308  0.2500000000000000
  0.5000000000000000  0.0837997233862644  0.7500000000000000

  0.00000000E+00  0.00000000E+00  0.00000000E+00
  0.00000000E+00  0.00000000E+00  0.00000000E+00
  0.00000000E+00  0.00000000E+00  0.00000000E+00
  0.00000000E+00  0.00000000E+00  0.00000000E+00
  0.00000000E+00  0.00000000E+00  0.00000000E+00
  0.00000000E+00  0.00000000E+00  0.00000000E+00
  0.00000000E+00  0.00000000E+00  0.00000000E+00
  0.00000000E+00  0.00000000E+00  0.00000000E+00
  0.00000000E+00  0.00000000E+00  0.00000000E+00
  0.00000000E+00  0.00000000E+00  0.00000000E+00
  0.00000000E+00  0.00000000E+00  0.00000000E+00
  0.00000000E+00  0.00000000E+00  0.00000000E+00
  0.00000000E+00  0.00000000E+00  0.00000000E+00
  0.00000000E+00  0.00000000E+00  0.00000000E+00
  0.00000000E+00  0.00000000E+00  0.00000000E+00
  0.00000000E+00  0.00000000E+00  0.00000000E+00
  0.00000000E+00  0.00000000E+00  0.00000000E+00
  0.00000000E+00  0.00000000E+00  0.00000000E+00
  0.00000000E+00  0.00000000E+00  0.00000000E+00
  0.00000000E+00  0.00000000E+00  0.00000000E+00
  0.00000000E+00  0.00000000E+00  0.00000000E+00
  0.00000000E+00  0.00000000E+00  0.00000000E+00
  0.00000000E+00  0.00000000E+00  0.00000000E+00
  0.00000000E+00  0.00000000E+00  0.00000000E+00
