RbAsCl4                            
   1.0000000000000000     
     5.0907804024569199    0.0000000000000000    0.0000000000000000
     0.0000000000000000   20.5914472419649961   -0.0000000000000000
     0.0000000000000000   -0.0000000000000000    7.3881027798616810
   Rb   As   Cl
     4     4    16
Direct
  0.0000000000000000  0.4169881149357597  0.7500000000000000
  0.0000000000000000  0.5830118550642445  0.2500000000000000
  0.5000000000000000  0.9169881449357555  0.7500000000000000
  0.5000000000000000  0.0830118850642403  0.2500000000000000
 -0.0000000000000000  0.1024916409556488  0.7500000000000000
  0.0000000000000000  0.8975083810443530  0.2500000000000000
  0.5000000000000000  0.6024916189556470  0.7500000000000000
  0.5000000000000000  0.3975083510443506  0.2500000000000000
 -0.0000000000000000  0.1760483162278302  0.5193050535124586
 -0.0000000000000000  0.8239517137721721  0.4806949464875416
  0.0000000000000000  0.8239517137721721  0.0193050535124585
  0.0000000000000000  0.1760483162278302  0.9806949464875414
  0.5000000000000000  0.6760482862278279  0.5193050535124586
  0.5000000000000000  0.3239516837721698  0.4806949464875416
  0.5000000000000000  0.3239516837721698  0.0193050535124585
  0.5000000000000000  0.6760482862278279  0.9806949464875414
  0.0000000000000000 -0.0000000000000000 -0.0000000000000000
  0.0000000000000000 -0.0000000000000000  0.5000000000000000
  0.5000000000000000  0.5000000000000000 -0.0000000000000000
  0.5000000000000000  0.5000000000000000  0.5000000000000000
  0.0000000000000000  0.4115253870236816  0.2500000000000000
 -0.0000000000000000  0.5884745829763233  0.7500000000000000
  0.5000000000000000  0.9115254170236767  0.2500000000000000
  0.5000000000000000  0.0884746129763184  0.7500000000000000

  0.00000000E+00  0.00000000E+00  0.00000000E+00
  0.00000000E+00  0.00000000E+00  0.00000000E+00
  0.00000000E+00  0.00000000E+00  0.00000000E+00
  0.00000000E+00  0.00000000E+00  0.00000000E+00
  0.00000000E+00  0.00000000E+00  0.00000000E+00
  0.00000000E+00  0.00000000E+00  0.00000000E+00
  0.00000000E+00  0.00000000E+00  0.00000000E+00
  0.00000000E+00  0.00000000E+00  0.00000000E+00
  0.00000000E+00  0.00000000E+00  0.00000000E+00
  0.00000000E+00  0.00000000E+00  0.00000000E+00
  0.00000000E+00  0.00000000E+00  0.00000000E+00
  0.00000000E+00  0.00000000E+00  0.00000000E+00
  0.00000000E+00  0.00000000E+00  0.00000000E+00
  0.00000000E+00  0.00000000E+00  0.00000000E+00
  0.00000000E+00  0.00000000E+00  0.00000000E+00
  0.00000000E+00  0.00000000E+00  0.00000000E+00
  0.00000000E+00  0.00000000E+00  0.00000000E+00
  0.00000000E+00  0.00000000E+00  0.00000000E+00
  0.00000000E+00  0.00000000E+00  0.00000000E+00
  0.00000000E+00  0.00000000E+00  0.00000000E+00
  0.00000000E+00  0.00000000E+00  0.00000000E+00
  0.00000000E+00  0.00000000E+00  0.00000000E+00
  0.00000000E+00  0.00000000E+00  0.00000000E+00
  0.00000000E+00  0.00000000E+00  0.00000000E+00
