Cs2GeCl4                             
   1.0000000000000000     
     5.3320187387902402    0.0000000000000000    0.0000000000000000
     0.0000000000000000    5.3320187387902402    0.0000000000000000
     0.0000000000000000    0.0000000000000000   17.3727526161521766
   Cs   Ge   Cl
     4     2     8
Direct
  0.0000000000000000 -0.0000000000000000  0.3571257051910801
 -0.0000000000000000  0.0000000000000000  0.6428742948089199
  0.5000000000000000  0.5000000000000000  0.8571257051910801
  0.5000000000000000  0.5000000000000000  0.1428742948089199
 -0.0000000000000000 -0.0000000000000000  0.0000000000000000
  0.5000000000000000  0.5000000000000000  0.5000000000000000
  0.0000000000000000  0.0000000000000000  0.1548544176868462
 -0.0000000000000000  0.0000000000000000  0.8451455823131538
  0.5000000000000000  0.5000000000000000  0.6548544176868462
  0.5000000000000000  0.5000000000000000  0.3451455823131538
 -0.0000000000000000  0.5000000000000000 -0.0000000000000000
  0.5000000000000000 -0.0000000000000000 -0.0000000000000000
  0.5000000000000000 -0.0000000000000000  0.5000000000000000
 -0.0000000000000000  0.5000000000000000  0.5000000000000000

  0.00000000E+00  0.00000000E+00  0.00000000E+00
  0.00000000E+00  0.00000000E+00  0.00000000E+00
  0.00000000E+00  0.00000000E+00  0.00000000E+00
  0.00000000E+00  0.00000000E+00  0.00000000E+00
  0.00000000E+00  0.00000000E+00  0.00000000E+00
  0.00000000E+00  0.00000000E+00  0.00000000E+00
  0.00000000E+00  0.00000000E+00  0.00000000E+00
  0.00000000E+00  0.00000000E+00  0.00000000E+00
  0.00000000E+00  0.00000000E+00  0.00000000E+00
  0.00000000E+00  0.00000000E+00  0.00000000E+00
  0.00000000E+00  0.00000000E+00  0.00000000E+00
  0.00000000E+00  0.00000000E+00  0.00000000E+00
  0.00000000E+00  0.00000000E+00  0.00000000E+00
  0.00000000E+00  0.00000000E+00  0.00000000E+00
