CsAsBr4                            
   1.0000000000000000     
     5.4021066276511389    0.0000000000000000    0.0000000000000000
     0.0000000000000000   21.6613071500940499    0.0000000000000000
     0.0000000000000000    0.0000000000000000    7.9539028990873115
   Cs   As   Br
     4     4    16
Direct
  0.0000000000000000  0.4108693648486500  0.7500000000000000
  0.0000000000000000  0.5891306051513546  0.2500000000000000
  0.5000000000000000  0.9108693948486454  0.7500000000000000
  0.5000000000000000  0.0891306351513499  0.2500000000000000
  0.0000000000000000  0.1025039508705404  0.7500000000000000
 -0.0000000000000000  0.8974960711294615  0.2500000000000000
  0.5000000000000000  0.6025039288705385  0.7500000000000000
  0.5000000000000000  0.3974960411294589  0.2500000000000000
  0.0000000000000000  0.1787121433154605  0.5218474129736603
  0.0000000000000000  0.8212878866845419  0.4781525870263396
  0.0000000000000000  0.8212878866845419  0.0218474129736604
  0.0000000000000000  0.1787121433154605  0.9781525870263397
  0.5000000000000000  0.6787121133154581  0.5218474129736603
  0.5000000000000000  0.3212878566845395  0.4781525870263396
  0.5000000000000000  0.3212878566845395  0.0218474129736604
  0.5000000000000000  0.6787121133154581  0.9781525870263397
  0.0000000000000000  0.0000000000000000  0.0000000000000000
  0.0000000000000000  0.0000000000000000  0.5000000000000000
  0.5000000000000000  0.5000000000000000  0.0000000000000000
  0.5000000000000000  0.5000000000000000  0.5000000000000000
  0.0000000000000000  0.4139100571510613  0.2500000000000000
  0.0000000000000000  0.5860899128489432  0.7500000000000000
  0.5000000000000000  0.9139100871510568  0.2500000000000000
  0.5000000000000000  0.0860899428489387  0.7500000000000000

  0.00000000E+00  0.00000000E+00  0.00000000E+00
  0.00000000E+00  0.00000000E+00  0.00000000E+00
  0.00000000E+00  0.00000000E+00  0.00000000E+00
  0.00000000E+00  0.00000000E+00  0.00000000E+00
  0.00000000E+00  0.00000000E+00  0.00000000E+00
  0.00000000E+00  0.00000000E+00  0.00000000E+00
  0.00000000E+00  0.00000000E+00  0.00000000E+00
  0.00000000E+00  0.00000000E+00  0.00000000E+00
  0.00000000E+00  0.00000000E+00  0.00000000E+00
  0.00000000E+00  0.00000000E+00  0.00000000E+00
  0.00000000E+00  0.00000000E+00  0.00000000E+00
  0.00000000E+00  0.00000000E+00  0.00000000E+00
  0.00000000E+00  0.00000000E+00  0.00000000E+00
  0.00000000E+00  0.00000000E+00  0.00000000E+00
  0.00000000E+00  0.00000000E+00  0.00000000E+00
  0.00000000E+00  0.00000000E+00  0.00000000E+00
  0.00000000E+00  0.00000000E+00  0.00000000E+00
  0.00000000E+00  0.00000000E+00  0.00000000E+00
  0.00000000E+00  0.00000000E+00  0.00000000E+00
  0.00000000E+00  0.00000000E+00  0.00000000E+00
  0.00000000E+00  0.00000000E+00  0.00000000E+00
  0.00000000E+00  0.00000000E+00  0.00000000E+00
  0.00000000E+00  0.00000000E+00  0.00000000E+00
  0.00000000E+00  0.00000000E+00  0.00000000E+00
