Rb3Bi2I9                              
   1.0000000000000000     
     8.6771735390394937    0.0000000000000006    0.0000000000000000
    -4.3385867695197469    7.5146527179579223   -0.0000000000000001
     0.0000000000000000   -0.0000000000000000   11.1787684923391151
   Cs   Bi   I 
     3     2     9
Direct
  0.3333333429999996  0.6666666870000029  0.2730175077710648
  0.6666666870000029  0.3333333429999996  0.7269825222289376
 -0.0000000000000000 -0.0000000000000000 -0.0000000000000000
  0.3333333429999996  0.6666666870000029  0.8174122438592952
  0.6666666870000029  0.3333333429999996  0.1825877561407045
  0.1030250208807174  0.7667493801724257  0.6806849862627253
  0.2332506198275744  0.3362756557082967  0.6806849862627253
  0.6637243442916891  0.8969749641192990  0.6806849862627253
  0.7667493801724186  0.1030250208807032  0.3193150137372745
  0.3362756557083109  0.2332506198275744  0.3193150137372745
  0.8969749641192990  0.6637243442917033  0.3193150137372745
 -0.0000000000000000  0.4238483190063613 -0.0000000000000000
  0.5761516809936386  0.5761516809936386 -0.0000000000000000
  0.4238483190063613 -0.0000000000000000 -0.0000000000000000

  0.00000000E+00  0.00000000E+00  0.00000000E+00
  0.00000000E+00  0.00000000E+00  0.00000000E+00
  0.00000000E+00  0.00000000E+00  0.00000000E+00
  0.00000000E+00  0.00000000E+00  0.00000000E+00
  0.00000000E+00  0.00000000E+00  0.00000000E+00
  0.00000000E+00  0.00000000E+00  0.00000000E+00
  0.00000000E+00  0.00000000E+00  0.00000000E+00
  0.00000000E+00  0.00000000E+00  0.00000000E+00
  0.00000000E+00  0.00000000E+00  0.00000000E+00
  0.00000000E+00  0.00000000E+00  0.00000000E+00
  0.00000000E+00  0.00000000E+00  0.00000000E+00
  0.00000000E+00  0.00000000E+00  0.00000000E+00
  0.00000000E+00  0.00000000E+00  0.00000000E+00
  0.00000000E+00  0.00000000E+00  0.00000000E+00
