Sr4ZrO6                             
   1.0000000000000000     
     7.0676359593693050   -0.0619734416695757   -0.0611525798171499
     0.0335390688668319    7.0678280887754132   -0.0611525798324802
     0.0335390688655345    0.0330888677835902    7.0680151851373312
   Sr   Zr   O 
     8     2    12
Direct
  0.2500000000000000  0.2500000000000000  0.2500000000000000
  0.7500000000000000  0.7500000000000000  0.7500000000000000
  0.2500000000000000  0.6057107670878358  0.8942892329121713
  0.8942892329121784  0.2500000000000000  0.6057107670878287
  0.6057107670878216  0.8942892329121642  0.2500000000000000
  0.7500000000000000  0.3942892329121643  0.1057107670878286
  0.1057107670878215  0.7500000000000000  0.3942892329121714
  0.3942892329121785  0.1057107670878357  0.7500000000000000
 -0.0000000000000000  0.0000000000000000  0.0000000000000000
  0.5000000000000000  0.5000000000000000  0.5000000000000000
  0.5541230027962202  0.2129185578670107  0.4256652375211300
  0.4256652375211513  0.5541230027960923  0.2129185578669397
  0.2129185578668189  0.4256652375212082  0.5541230027961633
  0.9458769972037798  0.0743347704788564  0.2870814271330768
  0.2870814271331834  0.9458769972038651  0.0743347704788138
  0.0743347704788351  0.2870814271329560  0.9458769972038651
  0.4458769972037798  0.7870814271329846  0.5743347624788699
  0.5743347624788486  0.4458769972039077  0.7870814271330556
  0.7870814271331764  0.5743347624787918  0.4458769972038366
  0.0541230137962105  0.9256652375211443  0.7129185728669231
  0.9256652375211656  0.7129185728670439  0.0541230137961252
  0.7129185728668165  0.0541230137961252  0.9256652375211869

  0.00000000E+00  0.00000000E+00  0.00000000E+00
  0.00000000E+00  0.00000000E+00  0.00000000E+00
  0.00000000E+00  0.00000000E+00  0.00000000E+00
  0.00000000E+00  0.00000000E+00  0.00000000E+00
  0.00000000E+00  0.00000000E+00  0.00000000E+00
  0.00000000E+00  0.00000000E+00  0.00000000E+00
  0.00000000E+00  0.00000000E+00  0.00000000E+00
  0.00000000E+00  0.00000000E+00  0.00000000E+00
  0.00000000E+00  0.00000000E+00  0.00000000E+00
  0.00000000E+00  0.00000000E+00  0.00000000E+00
  0.00000000E+00  0.00000000E+00  0.00000000E+00
  0.00000000E+00  0.00000000E+00  0.00000000E+00
  0.00000000E+00  0.00000000E+00  0.00000000E+00
  0.00000000E+00  0.00000000E+00  0.00000000E+00
  0.00000000E+00  0.00000000E+00  0.00000000E+00
  0.00000000E+00  0.00000000E+00  0.00000000E+00
  0.00000000E+00  0.00000000E+00  0.00000000E+00
  0.00000000E+00  0.00000000E+00  0.00000000E+00
  0.00000000E+00  0.00000000E+00  0.00000000E+00
  0.00000000E+00  0.00000000E+00  0.00000000E+00
  0.00000000E+00  0.00000000E+00  0.00000000E+00
  0.00000000E+00  0.00000000E+00  0.00000000E+00
