CsSbBr4                            
   1.0000000000000000     
     5.6951551550210215    0.0000000000000000    0.0000000000000000
     0.0000000000000000   22.1258133238392958   -0.0000000000000000
     0.0000000000000000   -0.0000000000000000    8.1019439070103285
   Cs   Sb   Br
     4     4    16
Direct
 -0.0000000000000000  0.4049907396921257  0.7500000000000000
  0.0000000000000000  0.5950092303078792  0.2500000000000000
  0.5000000000000000  0.9049907696921208  0.7500000000000000
  0.5000000000000000  0.0950092603078743  0.2500000000000000
  0.0000000000000000  0.1012175672145892  0.7500000000000000
 -0.0000000000000000  0.8987824547854125  0.2500000000000000
  0.5000000000000000  0.6012175452145875  0.7500000000000000
  0.5000000000000000  0.3987824247854100  0.2500000000000000
  0.0000000000000000  0.1806912472359032  0.5081023333090142
 -0.0000000000000000  0.8193087827640995  0.4918976666909859
  0.0000000000000000  0.8193087827640995  0.0081023333090141
  0.0000000000000000  0.1806912472359032  0.9918976666909858
  0.5000000000000000  0.6806912172359005  0.5081023333090142
  0.5000000000000000  0.3193087527640967  0.4918976666909859
  0.5000000000000000  0.3193087527640967  0.0081023333090141
  0.5000000000000000  0.6806912172359005  0.9918976666909858
  0.0000000000000000  0.0000000000000000  0.0000000000000000
  0.0000000000000000  0.0000000000000000  0.5000000000000000
  0.5000000000000000  0.5000000000000000  0.0000000000000000
  0.5000000000000000  0.5000000000000000  0.5000000000000000
  0.0000000000000000  0.4132463314070353  0.2500000000000000
 -0.0000000000000000  0.5867536385929693  0.7500000000000000
  0.5000000000000000  0.9132463614070307  0.2500000000000000
  0.5000000000000000  0.0867536685929647  0.7500000000000000

  0.00000000E+00  0.00000000E+00  0.00000000E+00
  0.00000000E+00  0.00000000E+00  0.00000000E+00
  0.00000000E+00  0.00000000E+00  0.00000000E+00
  0.00000000E+00  0.00000000E+00  0.00000000E+00
  0.00000000E+00  0.00000000E+00  0.00000000E+00
  0.00000000E+00  0.00000000E+00  0.00000000E+00
  0.00000000E+00  0.00000000E+00  0.00000000E+00
  0.00000000E+00  0.00000000E+00  0.00000000E+00
  0.00000000E+00  0.00000000E+00  0.00000000E+00
  0.00000000E+00  0.00000000E+00  0.00000000E+00
  0.00000000E+00  0.00000000E+00  0.00000000E+00
  0.00000000E+00  0.00000000E+00  0.00000000E+00
  0.00000000E+00  0.00000000E+00  0.00000000E+00
  0.00000000E+00  0.00000000E+00  0.00000000E+00
  0.00000000E+00  0.00000000E+00  0.00000000E+00
  0.00000000E+00  0.00000000E+00  0.00000000E+00
  0.00000000E+00  0.00000000E+00  0.00000000E+00
  0.00000000E+00  0.00000000E+00  0.00000000E+00
  0.00000000E+00  0.00000000E+00  0.00000000E+00
  0.00000000E+00  0.00000000E+00  0.00000000E+00
  0.00000000E+00  0.00000000E+00  0.00000000E+00
  0.00000000E+00  0.00000000E+00  0.00000000E+00
  0.00000000E+00  0.00000000E+00  0.00000000E+00
  0.00000000E+00  0.00000000E+00  0.00000000E+00
