RbBiI4                             
   1.0000000000000000     
     6.1247151373368753    0.0000000000000000    0.0000000000000000
     0.0000000000000000   24.3642177904961699   -0.0000000000000000
     0.0000000000000000    0.0000000000000000    8.6142255234605383
   Rb   Bi   I 
     4     4    16
Direct
  0.0000000000000000  0.4070842952958706  0.7500000000000000
  0.0000000000000000  0.5929156747041340  0.2500000000000000
  0.5000000000000000  0.9070843252958660  0.7500000000000000
  0.5000000000000000  0.0929157047041294  0.2500000000000000
  0.0000000000000000  0.1015621729945258  0.7500000000000000
  0.0000000000000000  0.8984378490054761  0.2500000000000000
  0.5000000000000000  0.6015621509945239  0.7500000000000000
  0.5000000000000000  0.3984378190054735  0.2500000000000000
 -0.0000000000000000  0.1793782381144177  0.4895263156722077
  0.0000000000000000  0.8206217918855848  0.5104736843277925
 -0.0000000000000000  0.8206217918855848  0.9895263156722075
  0.0000000000000000  0.1793782381144177  0.0104736843277923
  0.5000000000000000  0.6793782081144152  0.4895263156722077
  0.5000000000000000  0.3206217618855823  0.5104736843277925
  0.5000000000000000  0.3206217618855823  0.9895263156722075
  0.5000000000000000  0.6793782081144152  0.0104736843277923
 -0.0000000000000000  0.0000000000000000 -0.0000000000000000
  0.0000000000000000  0.0000000000000000  0.5000000000000000
  0.5000000000000000  0.5000000000000000 -0.0000000000000000
  0.5000000000000000  0.5000000000000000  0.5000000000000000
  0.0000000000000000  0.4236256589806234  0.2500000000000000
  0.0000000000000000  0.5763743110193811  0.7500000000000000
  0.5000000000000000  0.9236256889806189  0.2500000000000000
  0.5000000000000000  0.0763743410193765  0.7500000000000000

  0.00000000E+00  0.00000000E+00  0.00000000E+00
  0.00000000E+00  0.00000000E+00  0.00000000E+00
  0.00000000E+00  0.00000000E+00  0.00000000E+00
  0.00000000E+00  0.00000000E+00  0.00000000E+00
  0.00000000E+00  0.00000000E+00  0.00000000E+00
  0.00000000E+00  0.00000000E+00  0.00000000E+00
  0.00000000E+00  0.00000000E+00  0.00000000E+00
  0.00000000E+00  0.00000000E+00  0.00000000E+00
  0.00000000E+00  0.00000000E+00  0.00000000E+00
  0.00000000E+00  0.00000000E+00  0.00000000E+00
  0.00000000E+00  0.00000000E+00  0.00000000E+00
  0.00000000E+00  0.00000000E+00  0.00000000E+00
  0.00000000E+00  0.00000000E+00  0.00000000E+00
  0.00000000E+00  0.00000000E+00  0.00000000E+00
  0.00000000E+00  0.00000000E+00  0.00000000E+00
  0.00000000E+00  0.00000000E+00  0.00000000E+00
  0.00000000E+00  0.00000000E+00  0.00000000E+00
  0.00000000E+00  0.00000000E+00  0.00000000E+00
  0.00000000E+00  0.00000000E+00  0.00000000E+00
  0.00000000E+00  0.00000000E+00  0.00000000E+00
  0.00000000E+00  0.00000000E+00  0.00000000E+00
  0.00000000E+00  0.00000000E+00  0.00000000E+00
  0.00000000E+00  0.00000000E+00  0.00000000E+00
  0.00000000E+00  0.00000000E+00  0.00000000E+00
