BaWO4
   1.0000000000000000     
     3.9857390902164140    0.0000000000000000    0.0000000000000000
     0.0000000000000000   14.6823519460013401   -0.0000000000000000
     0.0000000000000000   -0.0000000000000000    5.9974820374945432
   Ba   W    O 
     4     4    16
Direct
  0.0000000000000000  0.3566289983043599  0.7500000000000000
 -0.0000000000000000  0.6433709716956446  0.2500000000000000
  0.5000000000000000  0.8566290283043554  0.7500000000000000
  0.5000000000000000  0.1433710016956400  0.2500000000000000
  0.0000000000000000  0.0934892895524084  0.7500000000000000
 -0.0000000000000000  0.9065107324475935  0.2500000000000000
  0.5000000000000000  0.5934892675524065  0.7500000000000000
  0.5000000000000000  0.4065107024475910  0.2500000000000000
  0.0000000000000000  0.1804242095068853  0.5319945157737050
  0.0000000000000000  0.8195758204931173  0.4680054842263019
 -0.0000000000000000  0.8195758204931173  0.0319945157736980
  0.0000000000000000  0.1804242095068853  0.9680054842262950
  0.5000000000000000  0.6804241795068827  0.5319945157737050
  0.5000000000000000  0.3195757904931146  0.4680054842263019
  0.5000000000000000  0.3195757904931146  0.0319945157736980
  0.5000000000000000  0.6804241795068827  0.9680054842262950
 -0.0000000000000000  0.0000000000000000 -0.0000000000000000
  0.0000000000000000  0.0000000000000000  0.5000000000000000
  0.5000000000000000  0.5000000000000000 -0.0000000000000000
  0.5000000000000000  0.5000000000000000  0.5000000000000000
 -0.0000000000000000  0.4188469627228991  0.2500000000000000
  0.0000000000000000  0.5811530072771056  0.7500000000000000
  0.5000000000000000  0.9188469927228944  0.2500000000000000
  0.5000000000000000  0.0811530372771009  0.7500000000000000

  0.00000000E+00  0.00000000E+00  0.00000000E+00
  0.00000000E+00  0.00000000E+00  0.00000000E+00
  0.00000000E+00  0.00000000E+00  0.00000000E+00
  0.00000000E+00  0.00000000E+00  0.00000000E+00
  0.00000000E+00  0.00000000E+00  0.00000000E+00
  0.00000000E+00  0.00000000E+00  0.00000000E+00
  0.00000000E+00  0.00000000E+00  0.00000000E+00
  0.00000000E+00  0.00000000E+00  0.00000000E+00
  0.00000000E+00  0.00000000E+00  0.00000000E+00
  0.00000000E+00  0.00000000E+00  0.00000000E+00
  0.00000000E+00  0.00000000E+00  0.00000000E+00
  0.00000000E+00  0.00000000E+00  0.00000000E+00
  0.00000000E+00  0.00000000E+00  0.00000000E+00
  0.00000000E+00  0.00000000E+00  0.00000000E+00
  0.00000000E+00  0.00000000E+00  0.00000000E+00
  0.00000000E+00  0.00000000E+00  0.00000000E+00
  0.00000000E+00  0.00000000E+00  0.00000000E+00
  0.00000000E+00  0.00000000E+00  0.00000000E+00
  0.00000000E+00  0.00000000E+00  0.00000000E+00
  0.00000000E+00  0.00000000E+00  0.00000000E+00
  0.00000000E+00  0.00000000E+00  0.00000000E+00
  0.00000000E+00  0.00000000E+00  0.00000000E+00
  0.00000000E+00  0.00000000E+00  0.00000000E+00
  0.00000000E+00  0.00000000E+00  0.00000000E+00
