RbSbI4                             
   1.0000000000000000     
     6.0313504414783923    0.0000000000000000    0.0000000000000000
     0.0000000000000000   24.3472502485082423    0.0000000000000000
     0.0000000000000000   -0.0000000000000000    8.4951772575276188
   Rb   Sb   I 
     4     4    16
Direct
  0.0000000000000000  0.4154918071159555  0.7500000000000000
  0.0000000000000000  0.5845081628840493  0.2500000000000000
  0.5000000000000000  0.9154918371159507  0.7500000000000000
  0.5000000000000000  0.0845081928840446  0.2500000000000000
  0.0000000000000000  0.1007608121277470  0.7500000000000000
  0.0000000000000000  0.8992392098722547  0.2500000000000000
  0.5000000000000000  0.6007607901277453  0.7500000000000000
  0.5000000000000000  0.3992391798722524  0.2500000000000000
 -0.0000000000000000  0.1774653113394922  0.4958310159896271
 -0.0000000000000000  0.8225347186605101  0.5041689840103730
  0.0000000000000000  0.8225347186605101  0.9958310159896270
 -0.0000000000000000  0.1774653113394922  0.0041689840103729
  0.5000000000000000  0.6774652813394899  0.4958310159896271
  0.5000000000000000  0.3225346886605078  0.5041689840103730
  0.5000000000000000  0.3225346886605078  0.9958310159896270
  0.5000000000000000  0.6774652813394899  0.0041689840103729
 -0.0000000000000000  0.0000000000000000 -0.0000000000000000
  0.0000000000000000  0.0000000000000000  0.5000000000000000
  0.5000000000000000  0.5000000000000000 -0.0000000000000000
  0.5000000000000000  0.5000000000000000  0.5000000000000000
  0.0000000000000000  0.4190658989127930  0.2500000000000000
 -0.0000000000000000  0.5809340710872115  0.7500000000000000
  0.5000000000000000  0.9190659289127885  0.2500000000000000
  0.5000000000000000  0.0809341010872069  0.7500000000000000

  0.00000000E+00  0.00000000E+00  0.00000000E+00
  0.00000000E+00  0.00000000E+00  0.00000000E+00
  0.00000000E+00  0.00000000E+00  0.00000000E+00
  0.00000000E+00  0.00000000E+00  0.00000000E+00
  0.00000000E+00  0.00000000E+00  0.00000000E+00
  0.00000000E+00  0.00000000E+00  0.00000000E+00
  0.00000000E+00  0.00000000E+00  0.00000000E+00
  0.00000000E+00  0.00000000E+00  0.00000000E+00
  0.00000000E+00  0.00000000E+00  0.00000000E+00
  0.00000000E+00  0.00000000E+00  0.00000000E+00
  0.00000000E+00  0.00000000E+00  0.00000000E+00
  0.00000000E+00  0.00000000E+00  0.00000000E+00
  0.00000000E+00  0.00000000E+00  0.00000000E+00
  0.00000000E+00  0.00000000E+00  0.00000000E+00
  0.00000000E+00  0.00000000E+00  0.00000000E+00
  0.00000000E+00  0.00000000E+00  0.00000000E+00
  0.00000000E+00  0.00000000E+00  0.00000000E+00
  0.00000000E+00  0.00000000E+00  0.00000000E+00
  0.00000000E+00  0.00000000E+00  0.00000000E+00
  0.00000000E+00  0.00000000E+00  0.00000000E+00
  0.00000000E+00  0.00000000E+00  0.00000000E+00
  0.00000000E+00  0.00000000E+00  0.00000000E+00
  0.00000000E+00  0.00000000E+00  0.00000000E+00
  0.00000000E+00  0.00000000E+00  0.00000000E+00
