Cs4PbCl6                            
   1.0000000000000000     
     9.5911025183050889   -0.0037803442637063   -0.0037302721632696
     0.1258271301545137    9.5902778551869208   -0.0037302721683397
     0.1258271301544452    0.1241381294408000    9.5894751149379491
   Cs   Pb   Cl
     8     2    12
Direct
  0.2500000000000000  0.2500000000000000  0.2500000000000000
  0.7500000000000000  0.7500000000000000  0.7500000000000000
  0.2500000000000000  0.6217155058542566  0.8782844941457434
  0.8782844941457434  0.2500000000000000  0.6217155058542566
  0.6217155058542566  0.8782844941457434  0.2500000000000000
  0.7500000000000000  0.3782844941457504  0.1217155058542566
  0.1217155058542566  0.7500000000000000  0.3782844941457504
  0.3782844941457504  0.1217155058542566  0.7500000000000000
 -0.0000000000000000  0.0000000000000000  0.0000000000000000
  0.5000000000000000  0.5000000000000000  0.5000000000000000
  0.5603623567530602  0.2102401425251013  0.4267638668623462
  0.4267638668623462  0.5603623567530602  0.2102401425251084
  0.2102401425251155  0.4267638668623462  0.5603623567530602
  0.9396376432469398  0.0732361411376545  0.2897598424748868
  0.2897598424748868  0.9396376432469398  0.0732361411376545
  0.0732361411376545  0.2897598424748939  0.9396376432469398
  0.4396376432469398  0.7897598424748938  0.5732361331376539
  0.5732361331376539  0.4396376432469398  0.7897598424748867
  0.7897598424748867  0.5732361331376539  0.4396376432469398
  0.0603623677530575  0.9267638668623461  0.7102401575251133
  0.9267638668623461  0.7102401575251062  0.0603623677530575
  0.7102401575251133  0.0603623677530575  0.9267638668623461

  0.00000000E+00  0.00000000E+00  0.00000000E+00
  0.00000000E+00  0.00000000E+00  0.00000000E+00
  0.00000000E+00  0.00000000E+00  0.00000000E+00
  0.00000000E+00  0.00000000E+00  0.00000000E+00
  0.00000000E+00  0.00000000E+00  0.00000000E+00
  0.00000000E+00  0.00000000E+00  0.00000000E+00
  0.00000000E+00  0.00000000E+00  0.00000000E+00
  0.00000000E+00  0.00000000E+00  0.00000000E+00
  0.00000000E+00  0.00000000E+00  0.00000000E+00
  0.00000000E+00  0.00000000E+00  0.00000000E+00
  0.00000000E+00  0.00000000E+00  0.00000000E+00
  0.00000000E+00  0.00000000E+00  0.00000000E+00
  0.00000000E+00  0.00000000E+00  0.00000000E+00
  0.00000000E+00  0.00000000E+00  0.00000000E+00
  0.00000000E+00  0.00000000E+00  0.00000000E+00
  0.00000000E+00  0.00000000E+00  0.00000000E+00
  0.00000000E+00  0.00000000E+00  0.00000000E+00
  0.00000000E+00  0.00000000E+00  0.00000000E+00
  0.00000000E+00  0.00000000E+00  0.00000000E+00
  0.00000000E+00  0.00000000E+00  0.00000000E+00
  0.00000000E+00  0.00000000E+00  0.00000000E+00
  0.00000000E+00  0.00000000E+00  0.00000000E+00
