As                                     
   1.0000000000000000     
     1.9001804845390216   -3.2912091427724328   -0.0000000000000000
     1.9001804845390216    3.2912091427724328    0.0000000000000000
    -0.0000000000000000   -0.0000000000000001   10.6260694839137138
   As
     6
Direct
 -0.0000000000000000  0.0000000000000000  0.2273352528505632
  0.6666666666666643  0.3333333333333357  0.1059980804827654
  0.6666666666666643  0.3333333333333357  0.5606685861838989
  0.3333333333333357  0.6666666666666643  0.4393314138161010
  0.3333333333333357  0.6666666666666643  0.8940019195172346
  0.0000000000000000 -0.0000000000000000  0.7726647471494368

  0.00000000E+00  0.00000000E+00  0.00000000E+00
  0.00000000E+00  0.00000000E+00  0.00000000E+00
  0.00000000E+00  0.00000000E+00  0.00000000E+00
  0.00000000E+00  0.00000000E+00  0.00000000E+00
  0.00000000E+00  0.00000000E+00  0.00000000E+00
  0.00000000E+00  0.00000000E+00  0.00000000E+00
