Cs4SnI6                             
   1.0000000000000000     
    10.6042304288692772    0.0049091357844445    0.0048441124101229
     0.1482064847501487   10.6031958354117535    0.0048441124099946
     0.1482064847501871    0.1462170818452995   10.6021887341899532
   Cs   Sn   I 
     8     2    12
Direct
  0.2500000000000000  0.2500000000000000  0.2500000000000000
  0.7500000000000000  0.7500000000000000  0.7500000000000000
  0.2500000000000000  0.6303540431700064  0.8696459568299936
  0.8696459568299936  0.2500000000000000  0.6303540431700064
  0.6303540431700064  0.8696459568299936  0.2500000000000000
  0.7500000000000000  0.3696459568299936  0.1303540431700065
  0.1303540431700065  0.7500000000000000  0.3696459568299936
  0.3696459568299936  0.1303540431700065  0.7500000000000000
 -0.0000000000000000 -0.0000000000000000 -0.0000000000000000
  0.5000000000000000  0.5000000000000000  0.5000000000000000
  0.5595952825894284  0.2084057359441614  0.4305966360420957
  0.4305966360420957  0.5595952825894284  0.2084057359441615
  0.2084057359441686  0.4305966360420957  0.5595952825894284
  0.9404047174105716  0.0694033719579049  0.2915942490558338
  0.2915942490558338  0.9404047174105716  0.0694033719579049
  0.0694033719579049  0.2915942490558338  0.9404047174105716
  0.4404047174105716  0.7915942490558338  0.5694033639579041
  0.5694033639579041  0.4404047174105716  0.7915942490558338
  0.7915942490558338  0.5694033639579041  0.4404047174105716
  0.0595952935894258  0.9305966360420959  0.7084057509441662
  0.9305966360420959  0.7084057509441662  0.0595952935894258
  0.7084057509441662  0.0595952935894258  0.9305966360420959

  0.00000000E+00  0.00000000E+00  0.00000000E+00
  0.00000000E+00  0.00000000E+00  0.00000000E+00
  0.00000000E+00  0.00000000E+00  0.00000000E+00
  0.00000000E+00  0.00000000E+00  0.00000000E+00
  0.00000000E+00  0.00000000E+00  0.00000000E+00
  0.00000000E+00  0.00000000E+00  0.00000000E+00
  0.00000000E+00  0.00000000E+00  0.00000000E+00
  0.00000000E+00  0.00000000E+00  0.00000000E+00
  0.00000000E+00  0.00000000E+00  0.00000000E+00
  0.00000000E+00  0.00000000E+00  0.00000000E+00
  0.00000000E+00  0.00000000E+00  0.00000000E+00
  0.00000000E+00  0.00000000E+00  0.00000000E+00
  0.00000000E+00  0.00000000E+00  0.00000000E+00
  0.00000000E+00  0.00000000E+00  0.00000000E+00
  0.00000000E+00  0.00000000E+00  0.00000000E+00
  0.00000000E+00  0.00000000E+00  0.00000000E+00
  0.00000000E+00  0.00000000E+00  0.00000000E+00
  0.00000000E+00  0.00000000E+00  0.00000000E+00
  0.00000000E+00  0.00000000E+00  0.00000000E+00
  0.00000000E+00  0.00000000E+00  0.00000000E+00
  0.00000000E+00  0.00000000E+00  0.00000000E+00
  0.00000000E+00  0.00000000E+00  0.00000000E+00
