Automatically generated mesh
      20
Reciprocal lattice
    0.00000000000000    0.00000000000000    0.00000000000000             1
    0.16666666666667    0.00000000000000    0.00000000000000             4
    0.33333333333334    0.00000000000000    0.00000000000000             4
    0.50000000000000    0.00000000000000    0.00000000000000             2
    0.16666666666667    0.16666666666667    0.00000000000000             4
    0.33333333333334    0.16666666666667    0.00000000000000             8
    0.50000000000000    0.16666666666667    0.00000000000000             4
    0.33333333333334    0.33333333333334    0.00000000000000             4
    0.50000000000000    0.33333333333334    0.00000000000000             4
    0.50000000000000    0.50000000000000    0.00000000000000             1
    0.00000000000000    0.00000000000000    0.50000000000000             1
    0.16666666666667    0.00000000000000    0.50000000000000             4
    0.33333333333334    0.00000000000000    0.50000000000000             4
    0.50000000000000    0.00000000000000    0.50000000000000             2
    0.16666666666667    0.16666666666667    0.50000000000000             4
    0.33333333333334    0.16666666666667    0.50000000000000             8
    0.50000000000000    0.16666666666667    0.50000000000000             4
    0.33333333333334    0.33333333333334    0.50000000000000             4
    0.50000000000000    0.33333333333334    0.50000000000000             4
    0.50000000000000    0.50000000000000    0.50000000000000             1
Tetrahedra
       108    0.00231481481481
         4         2         3         5        15
         4         3         5         6        15
         4         3         6        15        16
         4         2         3        12        15
         4         3        12        13        15
         4         3        13        15        16
         4         5        12        13        15
         4         5        13        15        16
         4         5         6        13        16
         4         2         5        12        13
         4         2         3         5        13
         4         3         5         6        13
         4         3         4         6        16
         4         4         6         7        16
         4         4         7        16        17
         4         3         4        13        16
         4         4        13        14        16
         4         4        14        16        17
         4         6        13        14        16
         4         6        14        16        17
         4         6         7        14        17
         4         3         6        13        14
         4         3         4         6        14
         4         4         6         7        14
         4         3         4         7        17
         4         3         6         7        17
         4         3         6        16        17
         4         3         4        14        17
         4         3        13        14        17
         4         3        13        16        17
         4         7        13        14        17
         4         7        13        16        17
         4         6         7        13        16
         4         4         7        13        14
         4         3         4         7        13
         4         3         6         7        13
         4         2         3         6        16
         4         2         5         6        16
         4         2         5        15        16
         4         2         3        13        16
         4         2        12        13        16
         4         2        12        15        16
         4         6        12        13        16
         4         6        12        15        16
         4         5         6        12        15
         4         3         6        12        13
         4         2         3         6        12
         4         2         5         6        12
         4         1         2         5        15
         4         1         2        12        15
         4         1        11        12        15
         4         5        11        12        15
         4         2         5        11        12
         4         1         2         5        11
         4         1         2         2        12
         4         2         2         5        12
         4         2         5        12        15
         4         1         2        11        12
         4         2        11        12        12
         4         2        12        12        15
         4         6        15        16        16
         4         6        16        16        18
         4         6         8        16        18
         4         5         6        15        16
         4         5         6         6        16
         4         6         6         8        16
         4         8        16        17        18
         4         8        17        18        19
         4         8         9        17        19
         4         6         8        16        17
         4         6         7         8        17
         4         7         8         9        17
         4         6         7         8        18
         4         7         8         9        18
         4         7         9        18        19
         4         6         7        16        18
         4         7        16        17        18
         4         7        17        18        19
         4         9        16        17        19
         4         9        16        18        19
         4         8         9        16        18
         4         7         9        16        17
         4         6         7         9        16
         4         6         8         9        16
         4         6         7         9        19
         4         6         8         9        19
         4         6         8        18        19
         4         6         7        17        19
         4         6        16        17        19
         4         6        16        18        19
         4         8        15        16        18
         4         6         8        15        16
         4         5         6         8        15
         4         5         6         8        18
         4         5         6        16        18
         4         5        15        16        18
         4         8         9         9        19
         4         9         9        10        19
         4         9        10        19        20
         4         8         9        18        19
         4         9        18        19        19
         4         9        19        19        20
         4         8         9        10        20
         4         8         9        19        20
         4         8        18        19        20
         4        10        18        19        20
         4         9        10        18        19
         4         8         9        10        18
