Sr4HfO6                             
   1.0000000000000000     
     7.0509901574716825   -0.0598234987647233   -0.0590311137254108
     0.0354638762982907    7.0511547540261681   -0.0590311137407141
     0.0354638762970014    0.0349878381701052    7.0513150467693411
   Sr   Hf   O 
     8     2    12
Direct
  0.2500000000000000  0.2500000000000000  0.2500000000000000
  0.7500000000000000  0.7500000000000000  0.7500000000000000
  0.2500000000000000  0.6061027782399933  0.8938972217600138
  0.8938972217600210  0.2500000000000000  0.6061027782399862
  0.6061027782399790  0.8938972217600067  0.2500000000000000
  0.7500000000000000  0.3938972217600066  0.1061027782399863
  0.1061027782399792  0.7500000000000000  0.3938972217600137
  0.3938972217600208  0.1061027782399934  0.7500000000000000
 -0.0000000000000000 -0.0000000000000000  0.0000000000000000
  0.5000000000000000  0.5000000000000000  0.5000000000000000
  0.5544412665213614  0.2145850559053041  0.4263062812290426
  0.4263062812290639  0.5544412665212335  0.2145850559052330
  0.2145850559051122  0.4263062812291207  0.5544412665213045
  0.9455587334786386  0.0736937267709438  0.2854149290947836
  0.2854149290948901  0.9455587334787239  0.0736937267709011
  0.0736937267709224  0.2854149290946628  0.9455587334787239
  0.4455587334786383  0.7854149290946911  0.5736937187709572
  0.5736937187709359  0.4455587334787662  0.7854149290947622
  0.7854149290948830  0.5736937187708790  0.4455587334786952
  0.0544412775213518  0.9263062812290570  0.7145850709052165
  0.9263062812290783  0.7145850709053373  0.0544412775212666
  0.7145850709051099  0.0544412775212666  0.9263062812290996

  0.00000000E+00  0.00000000E+00  0.00000000E+00
  0.00000000E+00  0.00000000E+00  0.00000000E+00
  0.00000000E+00  0.00000000E+00  0.00000000E+00
  0.00000000E+00  0.00000000E+00  0.00000000E+00
  0.00000000E+00  0.00000000E+00  0.00000000E+00
  0.00000000E+00  0.00000000E+00  0.00000000E+00
  0.00000000E+00  0.00000000E+00  0.00000000E+00
  0.00000000E+00  0.00000000E+00  0.00000000E+00
  0.00000000E+00  0.00000000E+00  0.00000000E+00
  0.00000000E+00  0.00000000E+00  0.00000000E+00
  0.00000000E+00  0.00000000E+00  0.00000000E+00
  0.00000000E+00  0.00000000E+00  0.00000000E+00
  0.00000000E+00  0.00000000E+00  0.00000000E+00
  0.00000000E+00  0.00000000E+00  0.00000000E+00
  0.00000000E+00  0.00000000E+00  0.00000000E+00
  0.00000000E+00  0.00000000E+00  0.00000000E+00
  0.00000000E+00  0.00000000E+00  0.00000000E+00
  0.00000000E+00  0.00000000E+00  0.00000000E+00
  0.00000000E+00  0.00000000E+00  0.00000000E+00
  0.00000000E+00  0.00000000E+00  0.00000000E+00
  0.00000000E+00  0.00000000E+00  0.00000000E+00
  0.00000000E+00  0.00000000E+00  0.00000000E+00
