Cs3Ge2I7                                
   1.0000000000000000     
     5.9501522784506262    0.0000000000000000    0.0000000000000000
    -0.0000000000000000    5.9501522784506262    0.0000000000000000
    -0.0000000000000000    0.0000000000000000   31.0866677599698136
   Cs   Ge   I 
     6     4    14
Direct
 -0.0000000000000000 -0.0000000000000000  0.3187468565752568
  0.0000000000000000  0.0000000000000000  0.6812531434247431
  0.5000000000000000  0.5000000000000000  0.8187468565752569
  0.5000000000000000  0.5000000000000000  0.1812531434247432
  0.0000000000000000  0.0000000000000000  0.5000000000000000
  0.5000000000000000  0.5000000000000000 -0.0000000000000000
 -0.0000000000000000 -0.0000000000000000  0.0986515642054708
  0.0000000000000000  0.0000000000000000  0.9013484277945285
  0.5000000000000000  0.5000000000000000  0.5986515722054715
  0.5000000000000000  0.5000000000000000  0.4013484277945286
 -0.0000000000000000  0.5000000000000000  0.0949108911936271
  0.0000000000000000  0.5000000000000000  0.9050891238063705
  0.5000000000000000 -0.0000000000000000  0.0949108911936271
  0.5000000000000000  0.0000000000000000  0.9050891238063705
  0.5000000000000000 -0.0000000000000000  0.5949108761936295
  0.5000000000000000  0.0000000000000000  0.4050891238063706
 -0.0000000000000000  0.5000000000000000  0.5949108761936295
  0.0000000000000000  0.5000000000000000  0.4050891238063706
  0.0000000000000000  0.0000000000000000  0.1942816794592656
 -0.0000000000000000 -0.0000000000000000  0.8057183055407366
  0.5000000000000000  0.5000000000000000  0.6942816944592634
  0.5000000000000000  0.5000000000000000  0.3057183055407295
  0.0000000000000000  0.0000000000000000 -0.0000000000000000
  0.5000000000000000  0.5000000000000000  0.5000000000000000

  0.00000000E+00  0.00000000E+00  0.00000000E+00
  0.00000000E+00  0.00000000E+00  0.00000000E+00
  0.00000000E+00  0.00000000E+00  0.00000000E+00
  0.00000000E+00  0.00000000E+00  0.00000000E+00
  0.00000000E+00  0.00000000E+00  0.00000000E+00
  0.00000000E+00  0.00000000E+00  0.00000000E+00
  0.00000000E+00  0.00000000E+00  0.00000000E+00
  0.00000000E+00  0.00000000E+00  0.00000000E+00
  0.00000000E+00  0.00000000E+00  0.00000000E+00
  0.00000000E+00  0.00000000E+00  0.00000000E+00
  0.00000000E+00  0.00000000E+00  0.00000000E+00
  0.00000000E+00  0.00000000E+00  0.00000000E+00
  0.00000000E+00  0.00000000E+00  0.00000000E+00
  0.00000000E+00  0.00000000E+00  0.00000000E+00
  0.00000000E+00  0.00000000E+00  0.00000000E+00
  0.00000000E+00  0.00000000E+00  0.00000000E+00
  0.00000000E+00  0.00000000E+00  0.00000000E+00
  0.00000000E+00  0.00000000E+00  0.00000000E+00
  0.00000000E+00  0.00000000E+00  0.00000000E+00
  0.00000000E+00  0.00000000E+00  0.00000000E+00
  0.00000000E+00  0.00000000E+00  0.00000000E+00
  0.00000000E+00  0.00000000E+00  0.00000000E+00
  0.00000000E+00  0.00000000E+00  0.00000000E+00
  0.00000000E+00  0.00000000E+00  0.00000000E+00
