Cs4GeCl6                            
   1.0000000000000000     
     9.4403554038296562    0.0255876092038996    0.0252486915685630
     0.1531553160734946    9.4391476481922005    0.0252486915621034
     0.1531553160735419    0.1510994840817180    9.4379719626215373
   Cs   Ge   Cl
     8     2    12
Direct
  0.2500000000000000  0.2500000000000000  0.2500000000000000
  0.7500000000000000  0.7500000000000000  0.7500000000000000
  0.2500000000000000  0.6218375206138479  0.8781624793861521
  0.8781624793861521  0.2500000000000000  0.6218375206138479
  0.6218375206138479  0.8781624793861521  0.2500000000000000
  0.7500000000000000  0.3781624793861520  0.1218375206138480
  0.1218375206138480  0.7500000000000000  0.3781624793861520
  0.3781624793861520  0.1218375206138480  0.7500000000000000
 -0.0000000000000000 -0.0000000000000000  0.0000000000000000
  0.5000000000000000  0.5000000000000000  0.5000000000000000
  0.5605288298525434  0.2250505969589557  0.4297801169995640
  0.4297801169995711  0.5605288298525221  0.2250505969589414
  0.2250505969589272  0.4297801169995782  0.5605288298525363
  0.9394711701474566  0.0702198910004438  0.2749493880410538
  0.2749493880410751  0.9394711701474708  0.0702198910004224
  0.0702198910004367  0.2749493880410325  0.9394711701474779
  0.4394711701474566  0.7749493880410324  0.5702198830004431
  0.5702198830004360  0.4394711701474779  0.7749493880410466
  0.7749493880410750  0.5702198830004289  0.4394711701474637
  0.0605288408525408  0.9297801169995569  0.7250506119589534
  0.9297801169995640  0.7250506119589676  0.0605288408525195
  0.7250506119589250  0.0605288408525266  0.9297801169995711

  0.00000000E+00  0.00000000E+00  0.00000000E+00
  0.00000000E+00  0.00000000E+00  0.00000000E+00
  0.00000000E+00  0.00000000E+00  0.00000000E+00
  0.00000000E+00  0.00000000E+00  0.00000000E+00
  0.00000000E+00  0.00000000E+00  0.00000000E+00
  0.00000000E+00  0.00000000E+00  0.00000000E+00
  0.00000000E+00  0.00000000E+00  0.00000000E+00
  0.00000000E+00  0.00000000E+00  0.00000000E+00
  0.00000000E+00  0.00000000E+00  0.00000000E+00
  0.00000000E+00  0.00000000E+00  0.00000000E+00
  0.00000000E+00  0.00000000E+00  0.00000000E+00
  0.00000000E+00  0.00000000E+00  0.00000000E+00
  0.00000000E+00  0.00000000E+00  0.00000000E+00
  0.00000000E+00  0.00000000E+00  0.00000000E+00
  0.00000000E+00  0.00000000E+00  0.00000000E+00
  0.00000000E+00  0.00000000E+00  0.00000000E+00
  0.00000000E+00  0.00000000E+00  0.00000000E+00
  0.00000000E+00  0.00000000E+00  0.00000000E+00
  0.00000000E+00  0.00000000E+00  0.00000000E+00
  0.00000000E+00  0.00000000E+00  0.00000000E+00
  0.00000000E+00  0.00000000E+00  0.00000000E+00
  0.00000000E+00  0.00000000E+00  0.00000000E+00
