Ca4TiO6                                 
   1.0000000000000000     
     6.5219345264946309   -0.0592397498831636   -0.0584550968204146
     0.0288983018749868    6.5221395419086923   -0.0584550968369311
     0.0288983018733272    0.0285103946577901    6.5223391785311389
   Ca   Ti   O 
     8     2    12
Direct
  0.2500000000000000  0.2500000000000000  0.2500000000000000
  0.7500000000000000  0.7500000000000000  0.7500000000000000
  0.2500000000000000  0.6113517132417701  0.8886482867582370
  0.8886482867582370  0.2500000000000000  0.6113517132417630
  0.6113517132417630  0.8886482867582299  0.2500000000000000
  0.7500000000000000  0.3886482867582298  0.1113517132417630
  0.1113517132417630  0.7500000000000000  0.3886482867582369
  0.3886482867582369  0.1113517132417702  0.7500000000000000
  0.0000000000000000  0.0000000000000000 -0.0000000000000000
  0.5000000000000000  0.5000000000000000  0.5000000000000000
  0.5552050943509956  0.2104612555341687  0.4249150488641861
  0.4249150488641932  0.5552050943509104  0.2104612555341332
  0.2104612555340621  0.4249150488642287  0.5552050943509530
  0.9447949056490186  0.0750849591358075  0.2895387294658763
  0.2895387294659402  0.9447949056490754  0.0750849591357862
  0.0750849591358004  0.2895387294658052  0.9447949056490612
  0.4447949056490115  0.7895387294658267  0.5750849511358140
  0.5750849511358069  0.4447949056490897  0.7895387294658622
  0.7895387294659333  0.5750849511357714  0.4447949056490471
  0.0552051053509859  0.9249150488641931  0.7104612705341236
  0.9249150488642002  0.7104612705341946  0.0552051053509290
  0.7104612705340596  0.0552051053509219  0.9249150488642144

  0.00000000E+00  0.00000000E+00  0.00000000E+00
  0.00000000E+00  0.00000000E+00  0.00000000E+00
  0.00000000E+00  0.00000000E+00  0.00000000E+00
  0.00000000E+00  0.00000000E+00  0.00000000E+00
  0.00000000E+00  0.00000000E+00  0.00000000E+00
  0.00000000E+00  0.00000000E+00  0.00000000E+00
  0.00000000E+00  0.00000000E+00  0.00000000E+00
  0.00000000E+00  0.00000000E+00  0.00000000E+00
  0.00000000E+00  0.00000000E+00  0.00000000E+00
  0.00000000E+00  0.00000000E+00  0.00000000E+00
  0.00000000E+00  0.00000000E+00  0.00000000E+00
  0.00000000E+00  0.00000000E+00  0.00000000E+00
  0.00000000E+00  0.00000000E+00  0.00000000E+00
  0.00000000E+00  0.00000000E+00  0.00000000E+00
  0.00000000E+00  0.00000000E+00  0.00000000E+00
  0.00000000E+00  0.00000000E+00  0.00000000E+00
  0.00000000E+00  0.00000000E+00  0.00000000E+00
  0.00000000E+00  0.00000000E+00  0.00000000E+00
  0.00000000E+00  0.00000000E+00  0.00000000E+00
  0.00000000E+00  0.00000000E+00  0.00000000E+00
  0.00000000E+00  0.00000000E+00  0.00000000E+00
  0.00000000E+00  0.00000000E+00  0.00000000E+00
