Cs2PbI4                                 
   1.0000000000000000     
     6.2853776954810252    0.0000000000000000    0.0000000000000000
     0.0000000000000000    6.2853776954810252   -0.0000000000000000
    -0.0000000000000000    0.0000000000000000   19.4520984864018338
   Cs   Pb   I 
     4     2     8
Direct
 -0.0000000000000000  0.0000000000000000  0.3599815228354210
  0.0000000000000000 -0.0000000000000000  0.6400184771645792
  0.5000000000000000  0.5000000000000000  0.8599815228354208
  0.5000000000000000  0.5000000000000000  0.1400184771645791
  0.0000000000000000 -0.0000000000000000  0.0000000000000000
  0.5000000000000000  0.5000000000000000  0.5000000000000000
 -0.0000000000000000  0.0000000000000000  0.1650795378293256
  0.0000000000000000 -0.0000000000000000  0.8349204621706744
  0.5000000000000000  0.5000000000000000  0.6650795378293256
  0.5000000000000000  0.5000000000000000  0.3349204621706744
  0.0000000000000000  0.5000000000000000  0.0000000000000000
  0.5000000000000000 -0.0000000000000000  0.0000000000000000
  0.5000000000000000 -0.0000000000000000  0.5000000000000000
  0.0000000000000000  0.5000000000000000  0.5000000000000000

  0.00000000E+00  0.00000000E+00  0.00000000E+00
  0.00000000E+00  0.00000000E+00  0.00000000E+00
  0.00000000E+00  0.00000000E+00  0.00000000E+00
  0.00000000E+00  0.00000000E+00  0.00000000E+00
  0.00000000E+00  0.00000000E+00  0.00000000E+00
  0.00000000E+00  0.00000000E+00  0.00000000E+00
  0.00000000E+00  0.00000000E+00  0.00000000E+00
  0.00000000E+00  0.00000000E+00  0.00000000E+00
  0.00000000E+00  0.00000000E+00  0.00000000E+00
  0.00000000E+00  0.00000000E+00  0.00000000E+00
  0.00000000E+00  0.00000000E+00  0.00000000E+00
  0.00000000E+00  0.00000000E+00  0.00000000E+00
  0.00000000E+00  0.00000000E+00  0.00000000E+00
  0.00000000E+00  0.00000000E+00  0.00000000E+00
