Cs3Bi2Cl9                             
   1.0000000000000000     
     7.8565176695275767   -0.0000000000000000    0.0000000000000000
    -3.9282588347637883    6.8039438871724185   -0.0000000000000000
    -0.0000000000000000    0.0000000000000000    9.6791728783489557
   Cs   Bi   Cl
     3     2     9
Direct
  0.3333333429999996  0.6666666870000029  0.3435676344901877
  0.6666666870000029  0.3333333429999996  0.6564323955098148
 -0.0000000000000000  0.0000000000000000  0.0000000000000000
  0.3333333429999996  0.6666666870000029  0.8179836077709741
  0.6666666870000029  0.3333333429999996  0.1820163922290259
  0.1665367263398988  0.8197625351823774  0.6701023545835506
  0.1802374648176225  0.3467742061575189  0.6701023545835506
  0.6532257938424811  0.8334632586601034  0.6701023545835506
  0.8197625351823774  0.1665367263398916  0.3298976454164491
  0.3467742061575189  0.1802374648176225  0.3298976454164491
  0.8334632586601034  0.6532257938424811  0.3298976454164491
 -0.0000000000000000  0.4880086209766180  0.0000000000000000
  0.5119913790233821  0.5119913790233821  0.0000000000000000
  0.4880086209766180  0.0000000000000000  0.0000000000000000

  0.00000000E+00  0.00000000E+00  0.00000000E+00
  0.00000000E+00  0.00000000E+00  0.00000000E+00
  0.00000000E+00  0.00000000E+00  0.00000000E+00
  0.00000000E+00  0.00000000E+00  0.00000000E+00
  0.00000000E+00  0.00000000E+00  0.00000000E+00
  0.00000000E+00  0.00000000E+00  0.00000000E+00
  0.00000000E+00  0.00000000E+00  0.00000000E+00
  0.00000000E+00  0.00000000E+00  0.00000000E+00
  0.00000000E+00  0.00000000E+00  0.00000000E+00
  0.00000000E+00  0.00000000E+00  0.00000000E+00
  0.00000000E+00  0.00000000E+00  0.00000000E+00
  0.00000000E+00  0.00000000E+00  0.00000000E+00
  0.00000000E+00  0.00000000E+00  0.00000000E+00
  0.00000000E+00  0.00000000E+00  0.00000000E+00
