RbAsBr4                            
   1.0000000000000000     
     5.3628499650463626    0.0000000000000000    0.0000000000000000
     0.0000000000000000   22.0213669291851630    0.0000000000000000
     0.0000000000000000   -0.0000000000000000    7.7312244427412748
   Rb   As   Br
     4     4    16
Direct
  0.0000000000000000  0.4194995527268210  0.7500000000000000
  0.0000000000000000  0.5805004172731836  0.2500000000000000
  0.5000000000000000  0.9194995827268164  0.7500000000000000
  0.5000000000000000  0.0805004472731789  0.2500000000000000
 -0.0000000000000000  0.1023537040386921  0.7500000000000000
 -0.0000000000000000  0.8976463179613098  0.2500000000000000
  0.5000000000000000  0.6023536820386902  0.7500000000000000
  0.5000000000000000  0.3976462879613072  0.2500000000000000
 -0.0000000000000000  0.1758444679010260  0.5122400821444292
  0.0000000000000000  0.8241555620989764  0.4877599178555778
  0.0000000000000000  0.8241555620989764  0.0122400821444221
  0.0000000000000000  0.1758444679010260  0.9877599178555708
  0.5000000000000000  0.6758444379010236  0.5122400821444292
  0.5000000000000000  0.3241555320989739  0.4877599178555778
  0.5000000000000000  0.3241555320989739  0.0122400821444221
  0.5000000000000000  0.6758444379010236  0.9877599178555708
  0.0000000000000000  0.0000000000000000 -0.0000000000000000
  0.0000000000000000  0.0000000000000000  0.5000000000000000
  0.5000000000000000  0.5000000000000000 -0.0000000000000000
  0.5000000000000000  0.5000000000000000  0.5000000000000000
  0.0000000000000000  0.4151309799688991  0.2500000000000000
 -0.0000000000000000  0.5848689900311055  0.7500000000000000
  0.5000000000000000  0.9151310099688945  0.2500000000000000
  0.5000000000000000  0.0848690200311009  0.7500000000000000

  0.00000000E+00  0.00000000E+00  0.00000000E+00
  0.00000000E+00  0.00000000E+00  0.00000000E+00
  0.00000000E+00  0.00000000E+00  0.00000000E+00
  0.00000000E+00  0.00000000E+00  0.00000000E+00
  0.00000000E+00  0.00000000E+00  0.00000000E+00
  0.00000000E+00  0.00000000E+00  0.00000000E+00
  0.00000000E+00  0.00000000E+00  0.00000000E+00
  0.00000000E+00  0.00000000E+00  0.00000000E+00
  0.00000000E+00  0.00000000E+00  0.00000000E+00
  0.00000000E+00  0.00000000E+00  0.00000000E+00
  0.00000000E+00  0.00000000E+00  0.00000000E+00
  0.00000000E+00  0.00000000E+00  0.00000000E+00
  0.00000000E+00  0.00000000E+00  0.00000000E+00
  0.00000000E+00  0.00000000E+00  0.00000000E+00
  0.00000000E+00  0.00000000E+00  0.00000000E+00
  0.00000000E+00  0.00000000E+00  0.00000000E+00
  0.00000000E+00  0.00000000E+00  0.00000000E+00
  0.00000000E+00  0.00000000E+00  0.00000000E+00
  0.00000000E+00  0.00000000E+00  0.00000000E+00
  0.00000000E+00  0.00000000E+00  0.00000000E+00
  0.00000000E+00  0.00000000E+00  0.00000000E+00
  0.00000000E+00  0.00000000E+00  0.00000000E+00
  0.00000000E+00  0.00000000E+00  0.00000000E+00
  0.00000000E+00  0.00000000E+00  0.00000000E+00
