Cs4GeI6                             
   1.0000000000000000     
    10.4943921400339253    0.0267259500839900    0.0263719546899457
     0.1685370328671071   10.4930727592970712    0.0263719546888024
     0.1685370328673017    0.1662747292667009   10.4917884141433699
   Cs   Ge   I 
     8     2    12
Direct
  0.2500000000000000  0.2500000000000000  0.2500000000000000
  0.7500000000000000  0.7500000000000000  0.7500000000000000
  0.2500000000000000  0.6269867427242378  0.8730132572757622
  0.8730132572757622  0.2500000000000000  0.6269867427242378
  0.6269867427242378  0.8730132572757622  0.2500000000000000
  0.7500000000000000  0.3730132572757621  0.1269867427242379
  0.1269867427242379  0.7500000000000000  0.3730132572757621
  0.3730132572757621  0.1269867427242379  0.7500000000000000
  0.0000000000000000 -0.0000000000000000 -0.0000000000000000
  0.5000000000000000  0.5000000000000000  0.5000000000000000
  0.5599699708552969  0.2198802424813484  0.4319723159438514
  0.4319723159438514  0.5599699708552969  0.2198802424813484
  0.2198802424813484  0.4319723159438514  0.5599699708552969
  0.9400300291447031  0.0680276920561492  0.2801197425186469
  0.2801197425186469  0.9400300291447031  0.0680276920561492
  0.0680276920561492  0.2801197425186469  0.9400300291447031
  0.4400300291447031  0.7801197425186468  0.5680276840561556
  0.5680276840561556  0.4400300291447031  0.7801197425186468
  0.7801197425186468  0.5680276840561556  0.4400300291447031
  0.0599699818552942  0.9319723159438444  0.7198802574813532
  0.9319723159438444  0.7198802574813532  0.0599699818552942
  0.7198802574813532  0.0599699818552942  0.9319723159438444

  0.00000000E+00  0.00000000E+00  0.00000000E+00
  0.00000000E+00  0.00000000E+00  0.00000000E+00
  0.00000000E+00  0.00000000E+00  0.00000000E+00
  0.00000000E+00  0.00000000E+00  0.00000000E+00
  0.00000000E+00  0.00000000E+00  0.00000000E+00
  0.00000000E+00  0.00000000E+00  0.00000000E+00
  0.00000000E+00  0.00000000E+00  0.00000000E+00
  0.00000000E+00  0.00000000E+00  0.00000000E+00
  0.00000000E+00  0.00000000E+00  0.00000000E+00
  0.00000000E+00  0.00000000E+00  0.00000000E+00
  0.00000000E+00  0.00000000E+00  0.00000000E+00
  0.00000000E+00  0.00000000E+00  0.00000000E+00
  0.00000000E+00  0.00000000E+00  0.00000000E+00
  0.00000000E+00  0.00000000E+00  0.00000000E+00
  0.00000000E+00  0.00000000E+00  0.00000000E+00
  0.00000000E+00  0.00000000E+00  0.00000000E+00
  0.00000000E+00  0.00000000E+00  0.00000000E+00
  0.00000000E+00  0.00000000E+00  0.00000000E+00
  0.00000000E+00  0.00000000E+00  0.00000000E+00
  0.00000000E+00  0.00000000E+00  0.00000000E+00
  0.00000000E+00  0.00000000E+00  0.00000000E+00
  0.00000000E+00  0.00000000E+00  0.00000000E+00
