Ca3Ti2O7                                
   1.0000000000000000     
     3.8512026074366292    0.0000000000000000    0.0000000000000000
     0.0000000000000000    3.8512026074366292    0.0000000000000000
    -0.0000000000000000    0.0000000000000000   19.4801174154441021
   Ca   Ti   O 
     6     4    14
Direct
 -0.0000000000000000  0.0000000000000000  0.3149899916647168
  0.0000000000000000  0.0000000000000000  0.6850100083352834
  0.5000000000000000  0.5000000000000000  0.8149899916647166
  0.5000000000000000  0.5000000000000000  0.1850100083352832
  0.0000000000000000 -0.0000000000000000  0.5000000000000000
  0.5000000000000000  0.5000000000000000  0.0000000000000000
  0.0000000000000000  0.0000000000000000  0.1009185100698319
 -0.0000000000000000  0.0000000000000000  0.8990814819301675
  0.5000000000000000  0.5000000000000000  0.6009185180698325
  0.5000000000000000  0.5000000000000000  0.3990814819301674
 -0.0000000000000000  0.5000000000000000  0.0987481872831997
  0.0000000000000000  0.5000000000000000  0.9012518277167978
  0.5000000000000000 -0.0000000000000000  0.0987481872831997
  0.5000000000000000 -0.0000000000000000  0.9012518277167978
  0.5000000000000000  0.0000000000000000  0.5987481722832022
  0.5000000000000000 -0.0000000000000000  0.4012518277167981
 -0.0000000000000000  0.5000000000000000  0.5987481722832022
  0.0000000000000000  0.5000000000000000  0.4012518277167981
 -0.0000000000000000 -0.0000000000000000  0.2002363441057763
  0.0000000000000000 -0.0000000000000000  0.7997636408942186
  0.5000000000000000  0.5000000000000000  0.7002363591057814
  0.5000000000000000  0.5000000000000000  0.2997636408942189
  0.0000000000000000 -0.0000000000000000  0.0000000000000000
  0.5000000000000000  0.5000000000000000  0.5000000000000000

  0.00000000E+00  0.00000000E+00  0.00000000E+00
  0.00000000E+00  0.00000000E+00  0.00000000E+00
  0.00000000E+00  0.00000000E+00  0.00000000E+00
  0.00000000E+00  0.00000000E+00  0.00000000E+00
  0.00000000E+00  0.00000000E+00  0.00000000E+00
  0.00000000E+00  0.00000000E+00  0.00000000E+00
  0.00000000E+00  0.00000000E+00  0.00000000E+00
  0.00000000E+00  0.00000000E+00  0.00000000E+00
  0.00000000E+00  0.00000000E+00  0.00000000E+00
  0.00000000E+00  0.00000000E+00  0.00000000E+00
  0.00000000E+00  0.00000000E+00  0.00000000E+00
  0.00000000E+00  0.00000000E+00  0.00000000E+00
  0.00000000E+00  0.00000000E+00  0.00000000E+00
  0.00000000E+00  0.00000000E+00  0.00000000E+00
  0.00000000E+00  0.00000000E+00  0.00000000E+00
  0.00000000E+00  0.00000000E+00  0.00000000E+00
  0.00000000E+00  0.00000000E+00  0.00000000E+00
  0.00000000E+00  0.00000000E+00  0.00000000E+00
  0.00000000E+00  0.00000000E+00  0.00000000E+00
  0.00000000E+00  0.00000000E+00  0.00000000E+00
  0.00000000E+00  0.00000000E+00  0.00000000E+00
  0.00000000E+00  0.00000000E+00  0.00000000E+00
  0.00000000E+00  0.00000000E+00  0.00000000E+00
  0.00000000E+00  0.00000000E+00  0.00000000E+00
