Ba4HfO6                             
   1.0000000000000000     
     7.4455332797237235   -0.0199708151717537   -0.0197062941144483
     0.0806444875653807    7.4451233112303958   -0.0197062941287504
     0.0806444875642436    0.0795619817686386    7.4447242627624597
   Ba   Hf   O 
     8     2    12
Direct
  0.2500000000000000  0.2500000000000000  0.2500000000000000
  0.7500000000000000  0.7500000000000000  0.7500000000000000
  0.2500000000000000  0.6118237400058470  0.8881762599941601
  0.8881762599941672  0.2500000000000000  0.6118237400058399
  0.6118237400058328  0.8881762599941530  0.2500000000000000
  0.7500000000000000  0.3881762599941529  0.1118237400058399
  0.1118237400058328  0.7500000000000000  0.3881762599941600
  0.3881762599941671  0.1118237400058470  0.7500000000000000
  0.0000000000000000 -0.0000000000000000  0.0000000000000000
  0.5000000000000000  0.5000000000000000  0.5000000000000000
  0.5575558631792275  0.2287855368855474  0.4271535965101317
  0.4271535965101530  0.5575558631791209  0.2287855368854906
  0.2287855368853911  0.4271535965101956  0.5575558631791777
  0.9424441368207797  0.0728464114898548  0.2712144481145189
  0.2712144481146042  0.9424441368208507  0.0728464114898263
  0.0728464114898405  0.2712144481144265  0.9424441368208436
  0.4424441368207725  0.7712144481144477  0.5728464034898613
  0.5728464034898471  0.4424441368208791  0.7712144481145046
  0.7712144481146040  0.5728464034898044  0.4424441368208223
  0.0575558741792177  0.9271535965101458  0.7287855518854812
  0.9271535965101600  0.7287855518855736  0.0575558741791537
  0.7287855518853960  0.0575558741791466  0.9271535965101743

  0.00000000E+00  0.00000000E+00  0.00000000E+00
  0.00000000E+00  0.00000000E+00  0.00000000E+00
  0.00000000E+00  0.00000000E+00  0.00000000E+00
  0.00000000E+00  0.00000000E+00  0.00000000E+00
  0.00000000E+00  0.00000000E+00  0.00000000E+00
  0.00000000E+00  0.00000000E+00  0.00000000E+00
  0.00000000E+00  0.00000000E+00  0.00000000E+00
  0.00000000E+00  0.00000000E+00  0.00000000E+00
  0.00000000E+00  0.00000000E+00  0.00000000E+00
  0.00000000E+00  0.00000000E+00  0.00000000E+00
  0.00000000E+00  0.00000000E+00  0.00000000E+00
  0.00000000E+00  0.00000000E+00  0.00000000E+00
  0.00000000E+00  0.00000000E+00  0.00000000E+00
  0.00000000E+00  0.00000000E+00  0.00000000E+00
  0.00000000E+00  0.00000000E+00  0.00000000E+00
  0.00000000E+00  0.00000000E+00  0.00000000E+00
  0.00000000E+00  0.00000000E+00  0.00000000E+00
  0.00000000E+00  0.00000000E+00  0.00000000E+00
  0.00000000E+00  0.00000000E+00  0.00000000E+00
  0.00000000E+00  0.00000000E+00  0.00000000E+00
  0.00000000E+00  0.00000000E+00  0.00000000E+00
  0.00000000E+00  0.00000000E+00  0.00000000E+00
