RbBiBr4                            
   1.0000000000000000     
     5.7419980201335576    0.0000000000000000    0.0000000000000000
     0.0000000000000000   22.3600681318801726    0.0000000000000000
     0.0000000000000000   -0.0000000000000000    8.0587370917907712
   Rb   Bi   Br
     4     4    16
Direct
 -0.0000000000000000  0.3965143097952778  0.7500000000000000
 -0.0000000000000000  0.6034856602047269  0.2500000000000000
  0.5000000000000000  0.8965143397952731  0.7500000000000000
  0.5000000000000000  0.1034856902047223  0.2500000000000000
  0.0000000000000000  0.1009679449457493  0.7500000000000000
 -0.0000000000000000  0.8990320770542525  0.2500000000000000
  0.5000000000000000  0.6009679229457475  0.7500000000000000
  0.5000000000000000  0.3990320470542500  0.2500000000000000
 -0.0000000000000000  0.1797679268641842  0.4916077693391508
  0.0000000000000000  0.8202321031358180  0.5083922306608496
 -0.0000000000000000  0.8202321031358180  0.9916077693391504
  0.0000000000000000  0.1797679268641842  0.0083922306608493
  0.5000000000000000  0.6797678968641820  0.4916077693391508
  0.5000000000000000  0.3202320731358158  0.5083922306608496
  0.5000000000000000  0.3202320731358158  0.9916077693391504
  0.5000000000000000  0.6797678968641820  0.0083922306608493
 -0.0000000000000000 -0.0000000000000000  0.0000000000000000
 -0.0000000000000000 -0.0000000000000000  0.5000000000000000
  0.5000000000000000  0.5000000000000000  0.0000000000000000
  0.5000000000000000  0.5000000000000000  0.5000000000000000
 -0.0000000000000000  0.4200996987516218  0.2500000000000000
  0.0000000000000000  0.5799002712483827  0.7500000000000000
  0.5000000000000000  0.9200997287516173  0.2500000000000000
  0.5000000000000000  0.0799003012483781  0.7500000000000000

  0.00000000E+00  0.00000000E+00  0.00000000E+00
  0.00000000E+00  0.00000000E+00  0.00000000E+00
  0.00000000E+00  0.00000000E+00  0.00000000E+00
  0.00000000E+00  0.00000000E+00  0.00000000E+00
  0.00000000E+00  0.00000000E+00  0.00000000E+00
  0.00000000E+00  0.00000000E+00  0.00000000E+00
  0.00000000E+00  0.00000000E+00  0.00000000E+00
  0.00000000E+00  0.00000000E+00  0.00000000E+00
  0.00000000E+00  0.00000000E+00  0.00000000E+00
  0.00000000E+00  0.00000000E+00  0.00000000E+00
  0.00000000E+00  0.00000000E+00  0.00000000E+00
  0.00000000E+00  0.00000000E+00  0.00000000E+00
  0.00000000E+00  0.00000000E+00  0.00000000E+00
  0.00000000E+00  0.00000000E+00  0.00000000E+00
  0.00000000E+00  0.00000000E+00  0.00000000E+00
  0.00000000E+00  0.00000000E+00  0.00000000E+00
  0.00000000E+00  0.00000000E+00  0.00000000E+00
  0.00000000E+00  0.00000000E+00  0.00000000E+00
  0.00000000E+00  0.00000000E+00  0.00000000E+00
  0.00000000E+00  0.00000000E+00  0.00000000E+00
  0.00000000E+00  0.00000000E+00  0.00000000E+00
  0.00000000E+00  0.00000000E+00  0.00000000E+00
  0.00000000E+00  0.00000000E+00  0.00000000E+00
  0.00000000E+00  0.00000000E+00  0.00000000E+00
