Ca2ZrO4                              
   1.0000000000000000     
     4.1072773972794261    0.0000000000000000    0.0000000000000000
     0.0000000000000000    4.1072773972794261    0.0000000000000000
    -0.0000000000000000    0.0000000000000000   12.1157442167653162
   Ca   Zr   O 
     4     2     8
Direct
 -0.0000000000000000 -0.0000000000000000  0.3521806600186269
  0.0000000000000000 -0.0000000000000000  0.6478193399813732
  0.5000000000000000  0.5000000000000000  0.8521806600186268
  0.5000000000000000  0.5000000000000000  0.1478193399813731
  0.0000000000000000  0.0000000000000000 -0.0000000000000000
  0.5000000000000000  0.5000000000000000  0.5000000000000000
 -0.0000000000000000  0.0000000000000000  0.1729512727821841
  0.0000000000000000  0.0000000000000000  0.8270487272178157
  0.5000000000000000  0.5000000000000000  0.6729512727821843
  0.5000000000000000  0.5000000000000000  0.3270487272178159
  0.0000000000000000  0.5000000000000000 -0.0000000000000000
  0.5000000000000000  0.0000000000000000 -0.0000000000000000
  0.5000000000000000  0.0000000000000000  0.5000000000000000
  0.0000000000000000  0.5000000000000000  0.5000000000000000

  0.00000000E+00  0.00000000E+00  0.00000000E+00
  0.00000000E+00  0.00000000E+00  0.00000000E+00
  0.00000000E+00  0.00000000E+00  0.00000000E+00
  0.00000000E+00  0.00000000E+00  0.00000000E+00
  0.00000000E+00  0.00000000E+00  0.00000000E+00
  0.00000000E+00  0.00000000E+00  0.00000000E+00
  0.00000000E+00  0.00000000E+00  0.00000000E+00
  0.00000000E+00  0.00000000E+00  0.00000000E+00
  0.00000000E+00  0.00000000E+00  0.00000000E+00
  0.00000000E+00  0.00000000E+00  0.00000000E+00
  0.00000000E+00  0.00000000E+00  0.00000000E+00
  0.00000000E+00  0.00000000E+00  0.00000000E+00
  0.00000000E+00  0.00000000E+00  0.00000000E+00
  0.00000000E+00  0.00000000E+00  0.00000000E+00
