Cs2GeBr4                             
   1.0000000000000000     
     5.5969515188580905    0.0000000000000000   -0.0000000000000000
     0.0000000000000000    5.5969515188580905    0.0000000000000000
     0.0000000000000000   -0.0000000000000000   18.1866814352126802
   Cs   Ge   Br
     4     2     8
Direct
 -0.0000000000000000  0.0000000000000000  0.3582095713610542
  0.0000000000000000 -0.0000000000000000  0.6417904286389458
  0.5000000000000000  0.5000000000000000  0.8582095713610542
  0.5000000000000000  0.5000000000000000  0.1417904286389458
 -0.0000000000000000 -0.0000000000000000  0.0000000000000000
  0.5000000000000000  0.5000000000000000  0.5000000000000000
 -0.0000000000000000  0.0000000000000000  0.1561107522418234
  0.0000000000000000 -0.0000000000000000  0.8438892477581766
  0.5000000000000000  0.5000000000000000  0.6561107522418234
  0.5000000000000000  0.5000000000000000  0.3438892477581765
 -0.0000000000000000  0.5000000000000000 -0.0000000000000000
  0.5000000000000000 -0.0000000000000000  0.0000000000000000
  0.5000000000000000 -0.0000000000000000  0.5000000000000000
 -0.0000000000000000  0.5000000000000000  0.5000000000000000

  0.00000000E+00  0.00000000E+00  0.00000000E+00
  0.00000000E+00  0.00000000E+00  0.00000000E+00
  0.00000000E+00  0.00000000E+00  0.00000000E+00
  0.00000000E+00  0.00000000E+00  0.00000000E+00
  0.00000000E+00  0.00000000E+00  0.00000000E+00
  0.00000000E+00  0.00000000E+00  0.00000000E+00
  0.00000000E+00  0.00000000E+00  0.00000000E+00
  0.00000000E+00  0.00000000E+00  0.00000000E+00
  0.00000000E+00  0.00000000E+00  0.00000000E+00
  0.00000000E+00  0.00000000E+00  0.00000000E+00
  0.00000000E+00  0.00000000E+00  0.00000000E+00
  0.00000000E+00  0.00000000E+00  0.00000000E+00
  0.00000000E+00  0.00000000E+00  0.00000000E+00
  0.00000000E+00  0.00000000E+00  0.00000000E+00
