Ba4TiO6                             
   1.0000000000000000     
     7.3396811449375985   -0.0209532876294258   -0.0205635883898360
     0.1173198533722810    7.3387656107732537   -0.0209280219305574
     0.1173199335732612    0.1154921782285694    7.3378971030767985
   Ba   Ti   O 
     8     2    12
Direct
  0.2499998929512088  0.2499997199838546  0.2499999433131208
  0.7500001070487912  0.7500002800161525  0.7500000566868792
  0.2500000260789816  0.6183900930465057  0.8816099913849382
  0.8816099875008799  0.2499999647893477  0.6183901192659039
  0.6183902356613918  0.8816097689883901  0.2499998130540064
  0.7499999739210184  0.3816099069534941  0.1183900086150619
  0.1183900124991200  0.7500000352106523  0.3816098807340961
  0.3816097643386082  0.1183902310116100  0.7500001869459936
  0.0000000000000000  0.0000000000000000  0.0000000000000000
  0.5000000000000000  0.5000000000000000  0.5000000000000000
  0.5581937678523905  0.2373788728580191  0.4286507163952883
  0.4286509652781388  0.5581936848518559  0.2373788726733711
  0.2373788863257138  0.4286505385307984  0.5581936589143087
  0.9418063332018481  0.0713492272836416  0.2626212287628670
  0.2626212010413429  0.9418060688234485  0.0713494426131084
  0.0713494100423655  0.2626213782734022  0.9418065073589742
  0.4418062321476095  0.7626211121419760  0.5713492836047116
  0.5713490347218610  0.4418063151481441  0.7626211123266241
  0.7626210986742813  0.5713494614691944  0.4418063410856912
  0.0581936777981492  0.9286507807163662  0.7373787712371330
  0.9286505979576352  0.7373786217265907  0.0581935036410232
  0.7373787989586571  0.0581939421765489  0.9286505653868923

  0.00000000E+00  0.00000000E+00  0.00000000E+00
  0.00000000E+00  0.00000000E+00  0.00000000E+00
  0.00000000E+00  0.00000000E+00  0.00000000E+00
  0.00000000E+00  0.00000000E+00  0.00000000E+00
  0.00000000E+00  0.00000000E+00  0.00000000E+00
  0.00000000E+00  0.00000000E+00  0.00000000E+00
  0.00000000E+00  0.00000000E+00  0.00000000E+00
  0.00000000E+00  0.00000000E+00  0.00000000E+00
  0.00000000E+00  0.00000000E+00  0.00000000E+00
  0.00000000E+00  0.00000000E+00  0.00000000E+00
  0.00000000E+00  0.00000000E+00  0.00000000E+00
  0.00000000E+00  0.00000000E+00  0.00000000E+00
  0.00000000E+00  0.00000000E+00  0.00000000E+00
  0.00000000E+00  0.00000000E+00  0.00000000E+00
  0.00000000E+00  0.00000000E+00  0.00000000E+00
  0.00000000E+00  0.00000000E+00  0.00000000E+00
  0.00000000E+00  0.00000000E+00  0.00000000E+00
  0.00000000E+00  0.00000000E+00  0.00000000E+00
  0.00000000E+00  0.00000000E+00  0.00000000E+00
  0.00000000E+00  0.00000000E+00  0.00000000E+00
  0.00000000E+00  0.00000000E+00  0.00000000E+00
  0.00000000E+00  0.00000000E+00  0.00000000E+00
