Cs4GeI6                                 
   1.0000000000000000     
    10.4459946282472167    0.0386032980091935    0.0380919826154565
     0.1797592877916850   10.4445191648353362    0.0380919826138745
     0.1797592877919692    0.1773463457946552   10.4430828713660500
   Cs   Ge   I 
     8     2    12
Direct
  0.2500000000000000  0.2500000000000000  0.2500000000000000
  0.7500000000000000  0.7500000000000000  0.7500000000000000
  0.2500000000000000  0.6230033527618772  0.8769966472381227
  0.8769966472381227  0.2500000000000000  0.6230033527618773
  0.6230033527618773  0.8769966472381227  0.2500000000000000
  0.7500000000000000  0.3769966472381227  0.1230033527618774
  0.1230033527618774  0.7500000000000000  0.3769966472381226
  0.3769966472381226  0.1230033527618774  0.7500000000000000
  0.0000000000000000  0.0000000000000000 -0.0000000000000000
  0.5000000000000000  0.5000000000000000  0.5000000000000000
  0.5608591401133881  0.2192662465067136  0.4320729725946042
  0.4320729725946042  0.5608591401133881  0.2192662465067136
  0.2192662465067136  0.4320729725946042  0.5608591401133881
  0.9391408598866119  0.0679270354053966  0.2807337384932815
  0.2807337384932815  0.9391408598866119  0.0679270354053966
  0.0679270354053965  0.2807337384932815  0.9391408598866119
  0.4391408598866118  0.7807337384932819  0.5679270274054030
  0.5679270274054030  0.4391408598866118  0.7807337384932818
  0.7807337384932818  0.5679270274054030  0.4391408598866118
  0.0608591511133855  0.9320729725945970  0.7192662615067181
  0.9320729725945970  0.7192662615067182  0.0608591511133855
  0.7192662615067182  0.0608591511133855  0.9320729725945970

  0.00000000E+00  0.00000000E+00  0.00000000E+00
  0.00000000E+00  0.00000000E+00  0.00000000E+00
  0.00000000E+00  0.00000000E+00  0.00000000E+00
  0.00000000E+00  0.00000000E+00  0.00000000E+00
  0.00000000E+00  0.00000000E+00  0.00000000E+00
  0.00000000E+00  0.00000000E+00  0.00000000E+00
  0.00000000E+00  0.00000000E+00  0.00000000E+00
  0.00000000E+00  0.00000000E+00  0.00000000E+00
  0.00000000E+00  0.00000000E+00  0.00000000E+00
  0.00000000E+00  0.00000000E+00  0.00000000E+00
  0.00000000E+00  0.00000000E+00  0.00000000E+00
  0.00000000E+00  0.00000000E+00  0.00000000E+00
  0.00000000E+00  0.00000000E+00  0.00000000E+00
  0.00000000E+00  0.00000000E+00  0.00000000E+00
  0.00000000E+00  0.00000000E+00  0.00000000E+00
  0.00000000E+00  0.00000000E+00  0.00000000E+00
  0.00000000E+00  0.00000000E+00  0.00000000E+00
  0.00000000E+00  0.00000000E+00  0.00000000E+00
  0.00000000E+00  0.00000000E+00  0.00000000E+00
  0.00000000E+00  0.00000000E+00  0.00000000E+00
  0.00000000E+00  0.00000000E+00  0.00000000E+00
  0.00000000E+00  0.00000000E+00  0.00000000E+00
