Cs3As2I9                              
   1.0000000000000000     
     8.4299387304776694    0.0000000000000000   -0.0000000000000000
    -4.2149693652388347    7.3005410930377019   -0.0000000000000000
    -0.0000000000000000   -0.0000000000000000   10.3566357764058026
   Cs   As   I 
     3     2     9
Direct
  0.3333333429999996  0.6666666870000029  0.3197939813401030
  0.6666666870000029  0.3333333429999996  0.6802060486598995
  0.0000000000000000  0.0000000000000000  0.0000000000000000
  0.3333333429999996  0.6666666870000029  0.8162354551230983
  0.6666666870000029  0.3333333429999996  0.1837645448769017
  0.1701825041672711  0.8208329797022083  0.6727260746901185
  0.1791670202977915  0.3493495394650674  0.6727260746901185
  0.6506504605349398  0.8298174808327242  0.6727260746901185
  0.8208329797022154  0.1701825041672782  0.3272739253098816
  0.3493495394650603  0.1791670202977915  0.3272739253098816
  0.8298174808327242  0.6506504605349327  0.3272739253098816
  0.0000000000000000  0.4921739844493131  0.0000000000000000
  0.5078260155506867  0.5078260155506867  0.0000000000000000
  0.4921739844493131  0.0000000000000000  0.0000000000000000

  0.00000000E+00  0.00000000E+00  0.00000000E+00
  0.00000000E+00  0.00000000E+00  0.00000000E+00
  0.00000000E+00  0.00000000E+00  0.00000000E+00
  0.00000000E+00  0.00000000E+00  0.00000000E+00
  0.00000000E+00  0.00000000E+00  0.00000000E+00
  0.00000000E+00  0.00000000E+00  0.00000000E+00
  0.00000000E+00  0.00000000E+00  0.00000000E+00
  0.00000000E+00  0.00000000E+00  0.00000000E+00
  0.00000000E+00  0.00000000E+00  0.00000000E+00
  0.00000000E+00  0.00000000E+00  0.00000000E+00
  0.00000000E+00  0.00000000E+00  0.00000000E+00
  0.00000000E+00  0.00000000E+00  0.00000000E+00
  0.00000000E+00  0.00000000E+00  0.00000000E+00
  0.00000000E+00  0.00000000E+00  0.00000000E+00
