Sr2ZrO4                              
   1.0000000000000000     
     4.1413826820178805    0.0000000000000000   -0.0000000000000000
     0.0000000000000000    4.1413826820178805    0.0000000000000000
     0.0000000000000000    0.0000000000000000   12.8077186476071319
   Sr   Zr   O 
     4     2     8
Direct
 -0.0000000000000000  0.0000000000000000  0.3526809331251513
  0.0000000000000000 -0.0000000000000000  0.6473190668748490
  0.5000000000000000  0.5000000000000000  0.8526809331251510
  0.5000000000000000  0.5000000000000000  0.1473190668748488
  0.0000000000000000 -0.0000000000000000  0.0000000000000000
  0.5000000000000000  0.5000000000000000  0.5000000000000000
 -0.0000000000000000 -0.0000000000000000  0.1653577974250658
  0.0000000000000000  0.0000000000000000  0.8346422025749343
  0.5000000000000000  0.5000000000000000  0.6653577974250657
  0.5000000000000000  0.5000000000000000  0.3346422025749342
  0.0000000000000000  0.5000000000000000  0.0000000000000000
  0.5000000000000000 -0.0000000000000000  0.0000000000000000
  0.5000000000000000 -0.0000000000000000  0.5000000000000000
  0.0000000000000000  0.5000000000000000  0.5000000000000000

  0.00000000E+00  0.00000000E+00  0.00000000E+00
  0.00000000E+00  0.00000000E+00  0.00000000E+00
  0.00000000E+00  0.00000000E+00  0.00000000E+00
  0.00000000E+00  0.00000000E+00  0.00000000E+00
  0.00000000E+00  0.00000000E+00  0.00000000E+00
  0.00000000E+00  0.00000000E+00  0.00000000E+00
  0.00000000E+00  0.00000000E+00  0.00000000E+00
  0.00000000E+00  0.00000000E+00  0.00000000E+00
  0.00000000E+00  0.00000000E+00  0.00000000E+00
  0.00000000E+00  0.00000000E+00  0.00000000E+00
  0.00000000E+00  0.00000000E+00  0.00000000E+00
  0.00000000E+00  0.00000000E+00  0.00000000E+00
  0.00000000E+00  0.00000000E+00  0.00000000E+00
  0.00000000E+00  0.00000000E+00  0.00000000E+00
