Sr3W2O9                                 
   1.0000000000000000     
     5.6733628150290221    0.0000000000000001   -0.0000000000000000
    -2.8366814075145110    4.9132763227264595    0.0000000000000000
     0.0000000000000000   -0.0000000000000000    7.1329801345851376
   Sr   W    O 
     3     2     9
Direct
  0.3333333429999996  0.6666666870000029  0.3442095538400473
  0.6666666870000029  0.3333333429999996  0.6557904761599550
  0.0000000000000000  0.0000000000000000  0.0000000000000000
  0.3333333429999996  0.6666666870000029  0.8240089008946447
  0.6666666870000029  0.3333333429999996  0.1759910991053552
  0.1180248536751905  0.7645824128212710  0.6924279934281877
  0.2354175871787289  0.3534424558539527  0.6924279934281877
  0.6465575441460757  0.8819751313247904  0.6924279934281877
  0.7645824128212924  0.1180248536752118  0.3075720065718121
  0.3534424558539243  0.2354175871787289  0.3075720065718121
  0.8819751313247904  0.6465575441460473  0.3075720065718121
  0.0000000000000000  0.4523090704022224  0.0000000000000000
  0.5476909295977777  0.5476909295977777  0.0000000000000000
  0.4523090704022224  0.0000000000000000  0.0000000000000000

  0.00000000E+00  0.00000000E+00  0.00000000E+00
  0.00000000E+00  0.00000000E+00  0.00000000E+00
  0.00000000E+00  0.00000000E+00  0.00000000E+00
  0.00000000E+00  0.00000000E+00  0.00000000E+00
  0.00000000E+00  0.00000000E+00  0.00000000E+00
  0.00000000E+00  0.00000000E+00  0.00000000E+00
  0.00000000E+00  0.00000000E+00  0.00000000E+00
  0.00000000E+00  0.00000000E+00  0.00000000E+00
  0.00000000E+00  0.00000000E+00  0.00000000E+00
  0.00000000E+00  0.00000000E+00  0.00000000E+00
  0.00000000E+00  0.00000000E+00  0.00000000E+00
  0.00000000E+00  0.00000000E+00  0.00000000E+00
  0.00000000E+00  0.00000000E+00  0.00000000E+00
  0.00000000E+00  0.00000000E+00  0.00000000E+00
