Cs2PbBr4                                
   1.0000000000000000     
     5.9769643196141224    0.0000000000000000    0.0000000000000000
     0.0000000000000000    5.9769643196141224    0.0000000000000000
     0.0000000000000000    0.0000000000000000   18.3458461758848763
   Cs   Pb   Br
     4     2     8
Direct
  0.0000000000000000 -0.0000000000000000  0.3599218315395751
  0.0000000000000000  0.0000000000000000  0.6400781684604249
  0.5000000000000000  0.5000000000000000  0.8599218315395751
  0.5000000000000000  0.5000000000000000  0.1400781684604250
  0.0000000000000000  0.0000000000000000 -0.0000000000000000
  0.5000000000000000  0.5000000000000000  0.5000000000000000
  0.0000000000000000 -0.0000000000000000  0.1649919457478173
 -0.0000000000000000 -0.0000000000000000  0.8350080542521828
  0.5000000000000000  0.5000000000000000  0.6649919457478172
  0.5000000000000000  0.5000000000000000  0.3350080542521827
  0.0000000000000000  0.5000000000000000 -0.0000000000000000
  0.5000000000000000  0.0000000000000000 -0.0000000000000000
  0.5000000000000000  0.0000000000000000  0.5000000000000000
  0.0000000000000000  0.5000000000000000  0.5000000000000000

  0.00000000E+00  0.00000000E+00  0.00000000E+00
  0.00000000E+00  0.00000000E+00  0.00000000E+00
  0.00000000E+00  0.00000000E+00  0.00000000E+00
  0.00000000E+00  0.00000000E+00  0.00000000E+00
  0.00000000E+00  0.00000000E+00  0.00000000E+00
  0.00000000E+00  0.00000000E+00  0.00000000E+00
  0.00000000E+00  0.00000000E+00  0.00000000E+00
  0.00000000E+00  0.00000000E+00  0.00000000E+00
  0.00000000E+00  0.00000000E+00  0.00000000E+00
  0.00000000E+00  0.00000000E+00  0.00000000E+00
  0.00000000E+00  0.00000000E+00  0.00000000E+00
  0.00000000E+00  0.00000000E+00  0.00000000E+00
  0.00000000E+00  0.00000000E+00  0.00000000E+00
  0.00000000E+00  0.00000000E+00  0.00000000E+00
