Ca4ZrO6                             
   1.0000000000000000     
     6.7624669487126834   -0.0947551027828961   -0.0935000353359344
    -0.0033634293305015    6.7631299299472936   -0.0935000353524381
    -0.0033634293318525   -0.0033182813821065    6.7637754024603272
   Ca   Zr   O 
     8     2    12
Direct
  0.2500000000000000  0.2500000000000000  0.2500000000000000
  0.7500000000000000  0.7500000000000000  0.7500000000000000
  0.2500000000000000  0.5959683771243753  0.9040316228756247
  0.9040316228756389  0.2500000000000000  0.5959683771243753
  0.5959683771243611  0.9040316228756247  0.2500000000000000
  0.7500000000000000  0.4040316228756316  0.0959683771243683
  0.0959683771243612  0.7500000000000000  0.4040316228756316
  0.4040316228756458  0.0959683771243754  0.7500000000000000
 -0.0000000000000000 -0.0000000000000000  0.0000000000000000
  0.5000000000000000  0.5000000000000000  0.5000000000000000
  0.5491230698399312  0.2016428555465809  0.4257220583197046
  0.4257220583197259  0.5491230698398033  0.2016428555465099
  0.2016428555463891  0.4257220583197828  0.5491230698398673
  0.9508769301600759  0.0742779496802819  0.2983571294535066
  0.2983571294536060  0.9508769301601612  0.0742779496802392
  0.0742779496802676  0.2983571294533858  0.9508769301601612
  0.4508769301600687  0.7983571294534142  0.5742779416802954
  0.5742779416802741  0.4508769301601966  0.7983571294534852
  0.7983571294536060  0.5742779416802173  0.4508769301601327
  0.0491230808399215  0.9257220583197188  0.7016428705464934
  0.9257220583197330  0.7016428705466142  0.0491230808398362
  0.7016428705463940  0.0491230808398362  0.9257220583197614

  0.00000000E+00  0.00000000E+00  0.00000000E+00
  0.00000000E+00  0.00000000E+00  0.00000000E+00
  0.00000000E+00  0.00000000E+00  0.00000000E+00
  0.00000000E+00  0.00000000E+00  0.00000000E+00
  0.00000000E+00  0.00000000E+00  0.00000000E+00
  0.00000000E+00  0.00000000E+00  0.00000000E+00
  0.00000000E+00  0.00000000E+00  0.00000000E+00
  0.00000000E+00  0.00000000E+00  0.00000000E+00
  0.00000000E+00  0.00000000E+00  0.00000000E+00
  0.00000000E+00  0.00000000E+00  0.00000000E+00
  0.00000000E+00  0.00000000E+00  0.00000000E+00
  0.00000000E+00  0.00000000E+00  0.00000000E+00
  0.00000000E+00  0.00000000E+00  0.00000000E+00
  0.00000000E+00  0.00000000E+00  0.00000000E+00
  0.00000000E+00  0.00000000E+00  0.00000000E+00
  0.00000000E+00  0.00000000E+00  0.00000000E+00
  0.00000000E+00  0.00000000E+00  0.00000000E+00
  0.00000000E+00  0.00000000E+00  0.00000000E+00
  0.00000000E+00  0.00000000E+00  0.00000000E+00
  0.00000000E+00  0.00000000E+00  0.00000000E+00
  0.00000000E+00  0.00000000E+00  0.00000000E+00
  0.00000000E+00  0.00000000E+00  0.00000000E+00
