Sr3Ti2O7                                
   1.0000000000000000     
     3.9075214371117220   -0.0000000000000000   -0.0000000000000000
     0.0000000000000000    3.9075214371117220    0.0000000000000000
     0.0000000000000000    0.0000000000000000   20.3283301424581140
   Sr   Ti   O 
     6     4    14
Direct
  0.0000000000000000 -0.0000000000000000  0.3155340948517618
 -0.0000000000000000  0.0000000000000000  0.6844659051482381
  0.5000000000000000  0.5000000000000000  0.8155340948517619
  0.5000000000000000  0.5000000000000000  0.1844659051482382
 -0.0000000000000000 -0.0000000000000000  0.5000000000000000
  0.5000000000000000  0.5000000000000000  0.0000000000000000
  0.0000000000000000  0.0000000000000000  0.0978077554173760
 -0.0000000000000000 -0.0000000000000000  0.9021922365826234
  0.5000000000000000  0.5000000000000000  0.5978077634173766
  0.5000000000000000  0.5000000000000000  0.4021922365826233
  0.0000000000000000  0.5000000000000000  0.0962330173295667
 -0.0000000000000000  0.5000000000000000  0.9037669976704310
  0.5000000000000000  0.0000000000000000  0.0962330173295667
  0.5000000000000000 -0.0000000000000000  0.9037669976704310
  0.5000000000000000  0.0000000000000000  0.5962330023295690
  0.5000000000000000 -0.0000000000000000  0.4037669976704309
  0.0000000000000000  0.5000000000000000  0.5962330023295690
 -0.0000000000000000  0.5000000000000000  0.4037669976704309
 -0.0000000000000000  0.0000000000000000  0.1942986280945586
  0.0000000000000000 -0.0000000000000000  0.8057013569054365
  0.5000000000000000  0.5000000000000000  0.6942986430945635
  0.5000000000000000  0.5000000000000000  0.3057013569054295
 -0.0000000000000000 -0.0000000000000000  0.0000000000000000
  0.5000000000000000  0.5000000000000000  0.5000000000000000

  0.00000000E+00  0.00000000E+00  0.00000000E+00
  0.00000000E+00  0.00000000E+00  0.00000000E+00
  0.00000000E+00  0.00000000E+00  0.00000000E+00
  0.00000000E+00  0.00000000E+00  0.00000000E+00
  0.00000000E+00  0.00000000E+00  0.00000000E+00
  0.00000000E+00  0.00000000E+00  0.00000000E+00
  0.00000000E+00  0.00000000E+00  0.00000000E+00
  0.00000000E+00  0.00000000E+00  0.00000000E+00
  0.00000000E+00  0.00000000E+00  0.00000000E+00
  0.00000000E+00  0.00000000E+00  0.00000000E+00
  0.00000000E+00  0.00000000E+00  0.00000000E+00
  0.00000000E+00  0.00000000E+00  0.00000000E+00
  0.00000000E+00  0.00000000E+00  0.00000000E+00
  0.00000000E+00  0.00000000E+00  0.00000000E+00
  0.00000000E+00  0.00000000E+00  0.00000000E+00
  0.00000000E+00  0.00000000E+00  0.00000000E+00
  0.00000000E+00  0.00000000E+00  0.00000000E+00
  0.00000000E+00  0.00000000E+00  0.00000000E+00
  0.00000000E+00  0.00000000E+00  0.00000000E+00
  0.00000000E+00  0.00000000E+00  0.00000000E+00
  0.00000000E+00  0.00000000E+00  0.00000000E+00
  0.00000000E+00  0.00000000E+00  0.00000000E+00
  0.00000000E+00  0.00000000E+00  0.00000000E+00
  0.00000000E+00  0.00000000E+00  0.00000000E+00
