Cs3Bi2Br9                             
   1.0000000000000000     
     8.2037951629372294   -0.0000000000000000    0.0000000000000000
    -4.1018975814686147    7.1046950186379414    0.0000000000000000
     0.0000000000000000   -0.0000000000000000   10.1083191873414648
   Cs   Bi   Br
     3     2     9
Direct
  0.3333333429999996  0.6666666870000029  0.3349340500656998
  0.6666666870000029  0.3333333429999996  0.6650659799343027
  0.0000000000000000  0.0000000000000000  0.0000000000000000
  0.3333333429999996  0.6666666870000029  0.8142401567185314
  0.6666666870000029  0.3333333429999996  0.1857598432814685
  0.1636961520819384  0.8237318127709259  0.6665939859998726
  0.1762681872290740  0.3399643543110173  0.6665939859998726
  0.6600356456889828  0.8363038329180639  0.6665939859998726
  0.8237318127709259  0.1636961520819384  0.3334060140001274
  0.3399643543110244  0.1762681872290740  0.3334060140001274
  0.8363038329180639  0.6600356456889828  0.3334060140001274
  0.0000000000000000  0.4883496899427130  0.0000000000000000
  0.5116503100572870  0.5116503100572870  0.0000000000000000
  0.4883496899427130  0.0000000000000000  0.0000000000000000

  0.00000000E+00  0.00000000E+00  0.00000000E+00
  0.00000000E+00  0.00000000E+00  0.00000000E+00
  0.00000000E+00  0.00000000E+00  0.00000000E+00
  0.00000000E+00  0.00000000E+00  0.00000000E+00
  0.00000000E+00  0.00000000E+00  0.00000000E+00
  0.00000000E+00  0.00000000E+00  0.00000000E+00
  0.00000000E+00  0.00000000E+00  0.00000000E+00
  0.00000000E+00  0.00000000E+00  0.00000000E+00
  0.00000000E+00  0.00000000E+00  0.00000000E+00
  0.00000000E+00  0.00000000E+00  0.00000000E+00
  0.00000000E+00  0.00000000E+00  0.00000000E+00
  0.00000000E+00  0.00000000E+00  0.00000000E+00
  0.00000000E+00  0.00000000E+00  0.00000000E+00
  0.00000000E+00  0.00000000E+00  0.00000000E+00
