Cs3Pb2I7                                
   1.0000000000000000     
     6.2946577032599151    0.0000000000000000    0.0000000000000000
     0.0000000000000000    6.2946577032599151    0.0000000000000000
     0.0000000000000000    0.0000000000000000   31.9011118070475561
   Cs   Pb   I 
     6     4    14
Direct
  0.0000000000000000  0.0000000000000000  0.3193329833262344
 -0.0000000000000000 -0.0000000000000000  0.6806670166737656
  0.5000000000000000  0.5000000000000000  0.8193329833262344
  0.5000000000000000  0.5000000000000000  0.1806670166737656
 -0.0000000000000000  0.0000000000000000  0.5000000000000000
  0.5000000000000000  0.5000000000000000 -0.0000000000000000
 -0.0000000000000000  0.0000000000000000  0.1015863458435677
  0.0000000000000000 -0.0000000000000000  0.8984136461564319
  0.5000000000000000  0.5000000000000000  0.6015863538435681
  0.5000000000000000  0.5000000000000000  0.3984136461564315
 -0.0000000000000000  0.5000000000000000  0.0953291395032703
  0.0000000000000000  0.5000000000000000  0.9046708754967274
  0.5000000000000000  0.0000000000000000  0.0953291395032703
  0.5000000000000000  0.0000000000000000  0.9046708754967274
  0.5000000000000000  0.0000000000000000  0.5953291245032726
  0.5000000000000000 -0.0000000000000000  0.4046708754967273
 -0.0000000000000000  0.5000000000000000  0.5953291245032726
  0.0000000000000000  0.5000000000000000  0.4046708754967273
  0.0000000000000000 -0.0000000000000000  0.2007088599191184
 -0.0000000000000000 -0.0000000000000000  0.7992911250808766
  0.5000000000000000  0.5000000000000000  0.7007088749191234
  0.5000000000000000  0.5000000000000000  0.2992911250808768
 -0.0000000000000000  0.0000000000000000 -0.0000000000000000
  0.5000000000000000  0.5000000000000000  0.5000000000000000

  0.00000000E+00  0.00000000E+00  0.00000000E+00
  0.00000000E+00  0.00000000E+00  0.00000000E+00
  0.00000000E+00  0.00000000E+00  0.00000000E+00
  0.00000000E+00  0.00000000E+00  0.00000000E+00
  0.00000000E+00  0.00000000E+00  0.00000000E+00
  0.00000000E+00  0.00000000E+00  0.00000000E+00
  0.00000000E+00  0.00000000E+00  0.00000000E+00
  0.00000000E+00  0.00000000E+00  0.00000000E+00
  0.00000000E+00  0.00000000E+00  0.00000000E+00
  0.00000000E+00  0.00000000E+00  0.00000000E+00
  0.00000000E+00  0.00000000E+00  0.00000000E+00
  0.00000000E+00  0.00000000E+00  0.00000000E+00
  0.00000000E+00  0.00000000E+00  0.00000000E+00
  0.00000000E+00  0.00000000E+00  0.00000000E+00
  0.00000000E+00  0.00000000E+00  0.00000000E+00
  0.00000000E+00  0.00000000E+00  0.00000000E+00
  0.00000000E+00  0.00000000E+00  0.00000000E+00
  0.00000000E+00  0.00000000E+00  0.00000000E+00
  0.00000000E+00  0.00000000E+00  0.00000000E+00
  0.00000000E+00  0.00000000E+00  0.00000000E+00
  0.00000000E+00  0.00000000E+00  0.00000000E+00
  0.00000000E+00  0.00000000E+00  0.00000000E+00
  0.00000000E+00  0.00000000E+00  0.00000000E+00
  0.00000000E+00  0.00000000E+00  0.00000000E+00
