Ca3Ti2O7                             
   1.0000000000000000     
     3.8685232076378293    0.0000000000000000   -0.0000000000000000
     0.0000000000000000    3.8685232076378293    0.0000000000000000
    -0.0000000000000000   -0.0000000000000000   19.5834830668914321
   Ca   Ti   O 
     6     4    14
Direct
  0.0000000000000000  0.0000000000000000  0.3147909581349180
 -0.0000000000000000 -0.0000000000000000  0.6852090418650820
  0.5000000000000000  0.5000000000000000  0.8147909581349180
  0.5000000000000000  0.5000000000000000  0.1852090418650820
  0.0000000000000000 -0.0000000000000000  0.5000000000000000
  0.5000000000000000  0.5000000000000000  0.0000000000000000
 -0.0000000000000000 -0.0000000000000000  0.1008503578947141
  0.0000000000000000  0.0000000000000000  0.8991496341052851
  0.5000000000000000  0.5000000000000000  0.6008503658947149
  0.5000000000000000  0.5000000000000000  0.3991496341052852
 -0.0000000000000000  0.5000000000000000  0.0988439654258538
  0.0000000000000000  0.5000000000000000  0.9011560495741440
  0.5000000000000000 -0.0000000000000000  0.0988439654258538
  0.5000000000000000  0.0000000000000000  0.9011560495741440
  0.5000000000000000 -0.0000000000000000  0.5988439504258560
  0.5000000000000000  0.0000000000000000  0.4011560495741439
 -0.0000000000000000  0.5000000000000000  0.5988439504258560
  0.0000000000000000  0.5000000000000000  0.4011560495741439
  0.0000000000000000  0.0000000000000000  0.1999359273335774
 -0.0000000000000000 -0.0000000000000000  0.8000640576664176
  0.5000000000000000  0.5000000000000000  0.6999359423335824
  0.5000000000000000  0.5000000000000000  0.3000640576664177
  0.0000000000000000 -0.0000000000000000  0.0000000000000000
  0.5000000000000000  0.5000000000000000  0.5000000000000000

  0.00000000E+00  0.00000000E+00  0.00000000E+00
  0.00000000E+00  0.00000000E+00  0.00000000E+00
  0.00000000E+00  0.00000000E+00  0.00000000E+00
  0.00000000E+00  0.00000000E+00  0.00000000E+00
  0.00000000E+00  0.00000000E+00  0.00000000E+00
  0.00000000E+00  0.00000000E+00  0.00000000E+00
  0.00000000E+00  0.00000000E+00  0.00000000E+00
  0.00000000E+00  0.00000000E+00  0.00000000E+00
  0.00000000E+00  0.00000000E+00  0.00000000E+00
  0.00000000E+00  0.00000000E+00  0.00000000E+00
  0.00000000E+00  0.00000000E+00  0.00000000E+00
  0.00000000E+00  0.00000000E+00  0.00000000E+00
  0.00000000E+00  0.00000000E+00  0.00000000E+00
  0.00000000E+00  0.00000000E+00  0.00000000E+00
  0.00000000E+00  0.00000000E+00  0.00000000E+00
  0.00000000E+00  0.00000000E+00  0.00000000E+00
  0.00000000E+00  0.00000000E+00  0.00000000E+00
  0.00000000E+00  0.00000000E+00  0.00000000E+00
  0.00000000E+00  0.00000000E+00  0.00000000E+00
  0.00000000E+00  0.00000000E+00  0.00000000E+00
  0.00000000E+00  0.00000000E+00  0.00000000E+00
  0.00000000E+00  0.00000000E+00  0.00000000E+00
  0.00000000E+00  0.00000000E+00  0.00000000E+00
  0.00000000E+00  0.00000000E+00  0.00000000E+00
