Cs3Ge2I7                             
   1.0000000000000000     
     5.9943473406923484    0.0000000000000000    0.0000000000000000
     0.0000000000000000    5.9943473406923484    0.0000000000000000
     0.0000000000000000    0.0000000000000000   31.2390938303771399
   Cs   Ge   I 
     6     4    14
Direct
  0.0000000000000000  0.0000000000000000  0.3200117933526751
 -0.0000000000000000 -0.0000000000000000  0.6799882066473248
  0.5000000000000000  0.5000000000000000  0.8200117933526752
  0.5000000000000000  0.5000000000000000  0.1799882066473249
  0.0000000000000000  0.0000000000000000  0.5000000000000000
  0.5000000000000000  0.5000000000000000  0.0000000000000000
 -0.0000000000000000 -0.0000000000000000  0.0990534830725165
  0.0000000000000000  0.0000000000000000  0.9009465089274828
  0.5000000000000000  0.5000000000000000  0.5990534910725172
  0.5000000000000000  0.5000000000000000  0.4009465089274827
  0.0000000000000000  0.5000000000000000  0.0953844492527545
 -0.0000000000000000  0.5000000000000000  0.9046155657472431
  0.5000000000000000  0.0000000000000000  0.0953844492527545
  0.5000000000000000 -0.0000000000000000  0.9046155657472431
  0.5000000000000000  0.0000000000000000  0.5953844342527569
  0.5000000000000000 -0.0000000000000000  0.4046155657472432
  0.0000000000000000  0.5000000000000000  0.5953844342527569
 -0.0000000000000000  0.5000000000000000  0.4046155657472432
 -0.0000000000000000 -0.0000000000000000  0.1940387740864610
  0.0000000000000000  0.0000000000000000  0.8059612109135342
  0.5000000000000000  0.5000000000000000  0.6940387890864658
  0.5000000000000000  0.5000000000000000  0.3059612109135342
  0.0000000000000000  0.0000000000000000  0.0000000000000000
  0.5000000000000000  0.5000000000000000  0.5000000000000000

  0.00000000E+00  0.00000000E+00  0.00000000E+00
  0.00000000E+00  0.00000000E+00  0.00000000E+00
  0.00000000E+00  0.00000000E+00  0.00000000E+00
  0.00000000E+00  0.00000000E+00  0.00000000E+00
  0.00000000E+00  0.00000000E+00  0.00000000E+00
  0.00000000E+00  0.00000000E+00  0.00000000E+00
  0.00000000E+00  0.00000000E+00  0.00000000E+00
  0.00000000E+00  0.00000000E+00  0.00000000E+00
  0.00000000E+00  0.00000000E+00  0.00000000E+00
  0.00000000E+00  0.00000000E+00  0.00000000E+00
  0.00000000E+00  0.00000000E+00  0.00000000E+00
  0.00000000E+00  0.00000000E+00  0.00000000E+00
  0.00000000E+00  0.00000000E+00  0.00000000E+00
  0.00000000E+00  0.00000000E+00  0.00000000E+00
  0.00000000E+00  0.00000000E+00  0.00000000E+00
  0.00000000E+00  0.00000000E+00  0.00000000E+00
  0.00000000E+00  0.00000000E+00  0.00000000E+00
  0.00000000E+00  0.00000000E+00  0.00000000E+00
  0.00000000E+00  0.00000000E+00  0.00000000E+00
  0.00000000E+00  0.00000000E+00  0.00000000E+00
  0.00000000E+00  0.00000000E+00  0.00000000E+00
  0.00000000E+00  0.00000000E+00  0.00000000E+00
  0.00000000E+00  0.00000000E+00  0.00000000E+00
  0.00000000E+00  0.00000000E+00  0.00000000E+00
