Cs4PbI6                             
   1.0000000000000000     
    10.6368699454060369   -0.0033730920886126   -0.0033284141984234
     0.1403660796158260   10.6359442916434634   -0.0033284141982350
     0.1403660796158002    0.1384819199144397   10.6350432444838567
   Cs   Pb   I 
     8     2    12
Direct
  0.2500000000000000  0.2500000000000000  0.2500000000000000
  0.7500000000000000  0.7500000000000000  0.7500000000000000
  0.2500000000000000  0.6295797168773116  0.8704202831226884
  0.8704202831226884  0.2500000000000000  0.6295797168773116
  0.6295797168773116  0.8704202831226884  0.2500000000000000
  0.7500000000000000  0.3704202831226885  0.1295797168773116
  0.1295797168773116  0.7500000000000000  0.3704202831226885
  0.3704202831226885  0.1295797168773116  0.7500000000000000
 -0.0000000000000000  0.0000000000000000  0.0000000000000000
  0.5000000000000000  0.5000000000000000  0.5000000000000000
0.558336644	0.212833445	0.431327757
0.431327757	0.558336644	0.212833445
0.212833445	0.431327757	0.558336644
-0.058336644	0.068672251	0.28716654
0.28716654	-0.058336644	0.068672251
0.068672251	0.28716654	-0.058336644
0.441663356	0.78716654	0.568672243
0.568672243	0.441663356	0.78716654
0.78716654	0.568672243	0.441663356
0.058336655	-0.068672243	-0.28716654
-0.068672243	-0.28716654	0.058336655
-0.28716654	0.058336655	-0.068672243

  0.00000000E+00  0.00000000E+00  0.00000000E+00
  0.00000000E+00  0.00000000E+00  0.00000000E+00
  0.00000000E+00  0.00000000E+00  0.00000000E+00
  0.00000000E+00  0.00000000E+00  0.00000000E+00
  0.00000000E+00  0.00000000E+00  0.00000000E+00
  0.00000000E+00  0.00000000E+00  0.00000000E+00
  0.00000000E+00  0.00000000E+00  0.00000000E+00
  0.00000000E+00  0.00000000E+00  0.00000000E+00
  0.00000000E+00  0.00000000E+00  0.00000000E+00
  0.00000000E+00  0.00000000E+00  0.00000000E+00
  0.00000000E+00  0.00000000E+00  0.00000000E+00
  0.00000000E+00  0.00000000E+00  0.00000000E+00
  0.00000000E+00  0.00000000E+00  0.00000000E+00
  0.00000000E+00  0.00000000E+00  0.00000000E+00
  0.00000000E+00  0.00000000E+00  0.00000000E+00
  0.00000000E+00  0.00000000E+00  0.00000000E+00
  0.00000000E+00  0.00000000E+00  0.00000000E+00
  0.00000000E+00  0.00000000E+00  0.00000000E+00
  0.00000000E+00  0.00000000E+00  0.00000000E+00
  0.00000000E+00  0.00000000E+00  0.00000000E+00
  0.00000000E+00  0.00000000E+00  0.00000000E+00
  0.00000000E+00  0.00000000E+00  0.00000000E+00
