Cs4PbI6                                 
   1.0000000000000000     
    10.5860230812121348    0.0159916457074215    0.0157798302656615
     0.1590419419967919   10.5848403893225491    0.0157798302652470
     0.1590419419969182    0.1569070927521318   10.5836891127623591
   Cs   Pb   I 
     8     2    12
Direct
  0.2500000000000000  0.2500000000000000  0.2500000000000000
  0.7500000000000000  0.7500000000000000  0.7500000000000000
  0.2500000000000000  0.6277319848038854  0.8722680151961146
  0.8722680151961146  0.2500000000000000  0.6277319848038854
  0.6277319848038854  0.8722680151961146  0.2500000000000000
  0.7500000000000000  0.3722680151961145  0.1277319848038854
  0.1277319848038854  0.7500000000000000  0.3722680151961145
  0.3722680151961145  0.1277319848038854  0.7500000000000000
  0.0000000000000000 -0.0000000000000000 -0.0000000000000000
  0.5000000000000000  0.5000000000000000  0.5000000000000000
  0.5601327631211713  0.2046734601051614  0.4309283667484285
  0.4309283667484285  0.5601327631211713  0.2046734601051614
  0.2046734601051685  0.4309283667484285  0.5601327631211713
  0.9398672368788287  0.0690716412515720  0.2953265248948339
  0.2953265248948339  0.9398672368788287  0.0690716412515720
  0.0690716412515720  0.2953265248948339  0.9398672368788287
  0.4398672368788286  0.7953265248948339  0.5690716332515713
  0.5690716332515713  0.4398672368788286  0.7953265248948339
  0.7953265248948339  0.5690716332515713  0.4398672368788286
  0.0601327741211687  0.9309283667484287  0.7046734751051661
  0.9309283667484287  0.7046734751051661  0.0601327741211687
  0.7046734751051661  0.0601327741211687  0.9309283667484287

  0.00000000E+00  0.00000000E+00  0.00000000E+00
  0.00000000E+00  0.00000000E+00  0.00000000E+00
  0.00000000E+00  0.00000000E+00  0.00000000E+00
  0.00000000E+00  0.00000000E+00  0.00000000E+00
  0.00000000E+00  0.00000000E+00  0.00000000E+00
  0.00000000E+00  0.00000000E+00  0.00000000E+00
  0.00000000E+00  0.00000000E+00  0.00000000E+00
  0.00000000E+00  0.00000000E+00  0.00000000E+00
  0.00000000E+00  0.00000000E+00  0.00000000E+00
  0.00000000E+00  0.00000000E+00  0.00000000E+00
  0.00000000E+00  0.00000000E+00  0.00000000E+00
  0.00000000E+00  0.00000000E+00  0.00000000E+00
  0.00000000E+00  0.00000000E+00  0.00000000E+00
  0.00000000E+00  0.00000000E+00  0.00000000E+00
  0.00000000E+00  0.00000000E+00  0.00000000E+00
  0.00000000E+00  0.00000000E+00  0.00000000E+00
  0.00000000E+00  0.00000000E+00  0.00000000E+00
  0.00000000E+00  0.00000000E+00  0.00000000E+00
  0.00000000E+00  0.00000000E+00  0.00000000E+00
  0.00000000E+00  0.00000000E+00  0.00000000E+00
  0.00000000E+00  0.00000000E+00  0.00000000E+00
  0.00000000E+00  0.00000000E+00  0.00000000E+00
