Sr2TiO4                                 
   1.0000000000000000     
     3.8917801556127998    0.0000000000000000   -0.0000000000000000
     0.0000000000000000    3.8917801556127998    0.0000000000000000
     0.0000000000000000    0.0000000000000000   12.5735682835771136
   Sr   Ti   O 
     4     2     8
Direct
 -0.0000000000000000 -0.0000000000000000  0.3543911306934960
  0.0000000000000000 -0.0000000000000000  0.6456088693065039
  0.5000000000000000  0.5000000000000000  0.8543911306934961
  0.5000000000000000  0.5000000000000000  0.1456088693065039
  0.0000000000000000 -0.0000000000000000 -0.0000000000000000
  0.5000000000000000  0.5000000000000000  0.5000000000000000
  0.0000000000000000  0.0000000000000000  0.1588614478860843
 -0.0000000000000000  0.0000000000000000  0.8411385521139157
  0.5000000000000000  0.5000000000000000  0.6588614478860843
  0.5000000000000000  0.5000000000000000  0.3411385521139159
  0.0000000000000000  0.5000000000000000 -0.0000000000000000
  0.5000000000000000 -0.0000000000000000 -0.0000000000000000
  0.5000000000000000 -0.0000000000000000  0.5000000000000000
 -0.0000000000000000  0.5000000000000000  0.5000000000000000

  0.00000000E+00  0.00000000E+00  0.00000000E+00
  0.00000000E+00  0.00000000E+00  0.00000000E+00
  0.00000000E+00  0.00000000E+00  0.00000000E+00
  0.00000000E+00  0.00000000E+00  0.00000000E+00
  0.00000000E+00  0.00000000E+00  0.00000000E+00
  0.00000000E+00  0.00000000E+00  0.00000000E+00
  0.00000000E+00  0.00000000E+00  0.00000000E+00
  0.00000000E+00  0.00000000E+00  0.00000000E+00
  0.00000000E+00  0.00000000E+00  0.00000000E+00
  0.00000000E+00  0.00000000E+00  0.00000000E+00
  0.00000000E+00  0.00000000E+00  0.00000000E+00
  0.00000000E+00  0.00000000E+00  0.00000000E+00
  0.00000000E+00  0.00000000E+00  0.00000000E+00
  0.00000000E+00  0.00000000E+00  0.00000000E+00
