Automatically generated mesh
      13
Reciprocal lattice
    0.00000000000000    0.00000000000000    0.00000000000000             1
    0.25000000000000    0.00000000000000    0.00000000000000             6
    0.50000000000000    0.00000000000000    0.00000000000000             3
    0.25000000000000    0.25000000000000    0.00000000000000             6
    0.50000000000000    0.25000000000000    0.00000000000000            12
   -0.25000000000000    0.25000000000000    0.00000000000000             6
    0.50000000000000    0.50000000000000    0.00000000000000             3
    0.25000000000000    0.25000000000000    0.25000000000000             2
    0.50000000000000    0.25000000000000    0.25000000000000             6
   -0.25000000000000    0.25000000000000    0.25000000000000             6
    0.50000000000000    0.50000000000000    0.25000000000000             6
   -0.25000000000000    0.50000000000000    0.25000000000000             6
    0.50000000000000    0.50000000000000    0.50000000000000             1
Tetrahedra
        30    0.00260416666667
        12         8         9        11        13
        12         9        11        11        12
        12         9        10        11        12
        12         9        11        11        13
        12         5         7        10        12
        12         4         5         7        10
        12         7        10        11        12
        12         4         5         9        11
        12         4         8         9        11
        12         4         5         7        11
        24         5         6        10        12
        24         5         5         6        12
        12         5         5         7        12
        12         5         9        10        12
        12         5         9        11        12
        12         5         7        11        12
        12         2         3         6        10
        12         3         5         6        10
        12         3         5         9        10
        12         2         4         5         6
        12         4         5         6        10
        12         2         3         5         6
        12         3         5         5         6
        12         2         4         8         9
        12         2         4         5         9
        12         2         3         5         9
        12         1         2         4         8
        12         2         2         4         6
        12         2         4         6        10
        12         1         2         2         4
