Sr4TiO6
   1.0000000000000000     
     6.9224272632526693   -0.0580079148009169   -0.0569361243670773
     0.0724129788124528    6.9222834288486039   -0.0572824919997358
     0.0724127842396343    0.0714021682758968    6.9221610681693448
   Sr   Ti   O 
     8     2    12
Direct
  0.2499998929512088  0.2499997221330830  0.2499999411638854
  0.7500001070487912  0.7500002778669241  0.7500000588361146
  0.2500000260783963  0.6146967745932908  0.8853033098355854
  0.8853033537220869  0.2499999325947684  0.6146966888691876
  0.6146968694407773  0.8853031993870820  0.2499998452491781
  0.7499999739216038  0.3853032254067093  0.1146966901644147
  0.1146966462779130  0.7500000674052316  0.3853033111308123
  0.3853031305592228  0.1146968006129252  0.7500001547508219
  0.0000000000000000  0.0000000000000000  0.0000000000000000
  0.5000000000000000  0.5000000000000000  0.5000000000000000
  0.5564039577436046  0.2231267219881767  0.4271340686401565
  0.4271343630632310  0.5564038468321330  0.2231268519467834
  0.2231266752544163  0.4271340183737705  0.5564038227856610
  0.9435961433141034  0.0728658750661142  0.2768733795843344
  0.2768734121159009  0.9435959049722840  0.0728659627495469
  0.0728660122505224  0.2768733990450903  0.9435963453550331
  0.4435960422563953  0.7768732630118185  0.5728659313598435
  0.5728656369367691  0.4435961531678671  0.7768731330532118
  0.7768733097455788  0.5728659816262296  0.4435961772143390
  0.0564038676858940  0.9271341329338936  0.7231266204156657
  0.9271339957494783  0.7231266009549097  0.0564036656449641
  0.7231265878840920  0.0564041060277134  0.9271340452504537

  0.00000000E+00  0.00000000E+00  0.00000000E+00
  0.00000000E+00  0.00000000E+00  0.00000000E+00
  0.00000000E+00  0.00000000E+00  0.00000000E+00
  0.00000000E+00  0.00000000E+00  0.00000000E+00
  0.00000000E+00  0.00000000E+00  0.00000000E+00
  0.00000000E+00  0.00000000E+00  0.00000000E+00
  0.00000000E+00  0.00000000E+00  0.00000000E+00
  0.00000000E+00  0.00000000E+00  0.00000000E+00
  0.00000000E+00  0.00000000E+00  0.00000000E+00
  0.00000000E+00  0.00000000E+00  0.00000000E+00
  0.00000000E+00  0.00000000E+00  0.00000000E+00
  0.00000000E+00  0.00000000E+00  0.00000000E+00
  0.00000000E+00  0.00000000E+00  0.00000000E+00
  0.00000000E+00  0.00000000E+00  0.00000000E+00
  0.00000000E+00  0.00000000E+00  0.00000000E+00
  0.00000000E+00  0.00000000E+00  0.00000000E+00
  0.00000000E+00  0.00000000E+00  0.00000000E+00
  0.00000000E+00  0.00000000E+00  0.00000000E+00
  0.00000000E+00  0.00000000E+00  0.00000000E+00
  0.00000000E+00  0.00000000E+00  0.00000000E+00
  0.00000000E+00  0.00000000E+00  0.00000000E+00
  0.00000000E+00  0.00000000E+00  0.00000000E+00
