Ba2HfO4                              
   1.0000000000000000     
     4.1887035547904965    0.0000000000000000   -0.0000000000000000
     0.0000000000000000    4.1887035547904965    0.0000000000000000
     0.0000000000000000    0.0000000000000000   13.5862516921550416
   Ba   Hf   O 
     4     2     8
Direct
 -0.0000000000000000 -0.0000000000000000  0.3526076635678808
  0.0000000000000000  0.0000000000000000  0.6473923364321191
  0.5000000000000000  0.5000000000000000  0.8526076635678809
  0.5000000000000000  0.5000000000000000  0.1473923364321191
 -0.0000000000000000  0.0000000000000000 -0.0000000000000000
  0.5000000000000000  0.5000000000000000  0.5000000000000000
  0.0000000000000000  0.0000000000000000  0.1555441047381132
 -0.0000000000000000 -0.0000000000000000  0.8444558952618869
  0.5000000000000000  0.5000000000000000  0.6555441047381131
  0.5000000000000000  0.5000000000000000  0.3444558952618868
 -0.0000000000000000  0.5000000000000000 -0.0000000000000000
  0.5000000000000000  0.0000000000000000 -0.0000000000000000
  0.5000000000000000  0.0000000000000000  0.5000000000000000
 -0.0000000000000000  0.5000000000000000  0.5000000000000000

  0.00000000E+00  0.00000000E+00  0.00000000E+00
  0.00000000E+00  0.00000000E+00  0.00000000E+00
  0.00000000E+00  0.00000000E+00  0.00000000E+00
  0.00000000E+00  0.00000000E+00  0.00000000E+00
  0.00000000E+00  0.00000000E+00  0.00000000E+00
  0.00000000E+00  0.00000000E+00  0.00000000E+00
  0.00000000E+00  0.00000000E+00  0.00000000E+00
  0.00000000E+00  0.00000000E+00  0.00000000E+00
  0.00000000E+00  0.00000000E+00  0.00000000E+00
  0.00000000E+00  0.00000000E+00  0.00000000E+00
  0.00000000E+00  0.00000000E+00  0.00000000E+00
  0.00000000E+00  0.00000000E+00  0.00000000E+00
  0.00000000E+00  0.00000000E+00  0.00000000E+00
  0.00000000E+00  0.00000000E+00  0.00000000E+00
