Ba3W2O9                                 
   1.0000000000000000     
     5.8224540533262701    0.0000000000000001   -0.0000000000000000
    -2.9112270266631350    5.0423931225755423   -0.0000000000000000
    -0.0000000000000000    0.0000000000000000    7.3653441291623141
   Ba   W    O 
     3     2     9
Direct
  0.3333333429999996  0.6666666870000029  0.3446075923448825
  0.6666666870000029  0.3333333429999996  0.6553924376551201
 -0.0000000000000000  0.0000000000000000 -0.0000000000000000
  0.3333333429999996  0.6666666870000029  0.8279597605290433
  0.6666666870000029  0.3333333429999996  0.1720402394709567
  0.1688461076153571  0.8115944687430318  0.6972574189978193
  0.1884055312569683  0.3572516538723515  0.6972574189978193
  0.6427483461276768  0.8311538773846308  0.6972574189978193
  0.8115944687430531  0.1688461076153713  0.3027425810021805
  0.3572516538723231  0.1884055312569683  0.3027425810021805
  0.8311538773846308  0.6427483461276484  0.3027425810021805
  0.0000000000000000  0.4935870348564438 -0.0000000000000000
  0.5064129651435564  0.5064129651435564 -0.0000000000000000
  0.4935870348564438  0.0000000000000000 -0.0000000000000000

  0.00000000E+00  0.00000000E+00  0.00000000E+00
  0.00000000E+00  0.00000000E+00  0.00000000E+00
  0.00000000E+00  0.00000000E+00  0.00000000E+00
  0.00000000E+00  0.00000000E+00  0.00000000E+00
  0.00000000E+00  0.00000000E+00  0.00000000E+00
  0.00000000E+00  0.00000000E+00  0.00000000E+00
  0.00000000E+00  0.00000000E+00  0.00000000E+00
  0.00000000E+00  0.00000000E+00  0.00000000E+00
  0.00000000E+00  0.00000000E+00  0.00000000E+00
  0.00000000E+00  0.00000000E+00  0.00000000E+00
  0.00000000E+00  0.00000000E+00  0.00000000E+00
  0.00000000E+00  0.00000000E+00  0.00000000E+00
  0.00000000E+00  0.00000000E+00  0.00000000E+00
  0.00000000E+00  0.00000000E+00  0.00000000E+00
