Cs3Pb2I7                             
   1.0000000000000000     
     6.3919412487105758    0.0000000000000000    0.0000000000000000
     0.0000000000000000    6.3919412487105758   -0.0000000000000000
     0.0000000000000000   -0.0000000000000000   32.0372173677004355
   Cs   Pb   I 
     6     4    14
Direct
 -0.0000000000000000  0.0000000000000000  0.3215185580279379
  0.0000000000000000 -0.0000000000000000  0.6784814419720622
  0.5000000000000000  0.5000000000000000  0.8215185580279378
  0.5000000000000000  0.5000000000000000  0.1784814419720621
  0.0000000000000000  0.0000000000000000  0.5000000000000000
  0.5000000000000000  0.5000000000000000  0.0000000000000000
  0.0000000000000000 -0.0000000000000000  0.1022348438357604
 -0.0000000000000000  0.0000000000000000  0.8977651481642389
  0.5000000000000000  0.5000000000000000  0.6022348518357611
  0.5000000000000000  0.5000000000000000  0.3977651481642389
  0.0000000000000000  0.5000000000000000  0.0968942118167119
 -0.0000000000000000  0.5000000000000000  0.9031058031832858
  0.5000000000000000 -0.0000000000000000  0.0968942118167119
  0.5000000000000000  0.0000000000000000  0.9031058031832858
  0.5000000000000000 -0.0000000000000000  0.5968941968167142
  0.5000000000000000  0.0000000000000000  0.4031058031832858
  0.0000000000000000  0.5000000000000000  0.5968941968167142
 -0.0000000000000000  0.5000000000000000  0.4031058031832858
 -0.0000000000000000  0.0000000000000000  0.2009011303880252
  0.0000000000000000 -0.0000000000000000  0.7990988546119701
  0.5000000000000000  0.5000000000000000  0.7009011453880299
  0.5000000000000000  0.5000000000000000  0.2990988546119699
  0.0000000000000000  0.0000000000000000  0.0000000000000000
  0.5000000000000000  0.5000000000000000  0.5000000000000000

  0.00000000E+00  0.00000000E+00  0.00000000E+00
  0.00000000E+00  0.00000000E+00  0.00000000E+00
  0.00000000E+00  0.00000000E+00  0.00000000E+00
  0.00000000E+00  0.00000000E+00  0.00000000E+00
  0.00000000E+00  0.00000000E+00  0.00000000E+00
  0.00000000E+00  0.00000000E+00  0.00000000E+00
  0.00000000E+00  0.00000000E+00  0.00000000E+00
  0.00000000E+00  0.00000000E+00  0.00000000E+00
  0.00000000E+00  0.00000000E+00  0.00000000E+00
  0.00000000E+00  0.00000000E+00  0.00000000E+00
  0.00000000E+00  0.00000000E+00  0.00000000E+00
  0.00000000E+00  0.00000000E+00  0.00000000E+00
  0.00000000E+00  0.00000000E+00  0.00000000E+00
  0.00000000E+00  0.00000000E+00  0.00000000E+00
  0.00000000E+00  0.00000000E+00  0.00000000E+00
  0.00000000E+00  0.00000000E+00  0.00000000E+00
  0.00000000E+00  0.00000000E+00  0.00000000E+00
  0.00000000E+00  0.00000000E+00  0.00000000E+00
  0.00000000E+00  0.00000000E+00  0.00000000E+00
  0.00000000E+00  0.00000000E+00  0.00000000E+00
  0.00000000E+00  0.00000000E+00  0.00000000E+00
  0.00000000E+00  0.00000000E+00  0.00000000E+00
  0.00000000E+00  0.00000000E+00  0.00000000E+00
  0.00000000E+00  0.00000000E+00  0.00000000E+00
