Ca4TiO6                             
   1.0000000000000000     
     6.5731737407211623   -0.0686804301690054   -0.0677707316980414
     0.0201508927853901    6.5735016520002114   -0.0677707317147391
     0.0201508927837102    0.0198804036526195    6.5738209292926291
   Ca   Ti   O 
     8     2    12
Direct
  0.2500000000000000  0.2500000000000000  0.2500000000000000
  0.7500000000000000  0.7500000000000000  0.7500000000000000
  0.2500000000000000  0.6092142411593755  0.8907857588406316
  0.8907857588406316  0.2500000000000000  0.6092142411593684
  0.6092142411593684  0.8907857588406245  0.2500000000000000
  0.7500000000000000  0.3907857588406244  0.1092142411593685
  0.1092142411593685  0.7500000000000000  0.3907857588406315
  0.3907857588406315  0.1092142411593756  0.7500000000000000
 -0.0000000000000000 -0.0000000000000000 -0.0000000000000000
  0.5000000000000000  0.5000000000000000  0.5000000000000000
0.55280946	0.218975931	0.427569561
0.427569561	0.55280946	0.218975931
0.218975931	0.427569561	0.55280946
-0.05280946	0.072430447	0.281024054
0.281024054	-0.05280946	0.072430447
0.072430447	0.281024054	-0.05280946
0.44719054	0.781024054	0.572430439
0.572430439	0.44719054	0.781024054
0.781024054	0.572430439	0.44719054
0.05280947	-0.072430439	-0.281024054
-0.072430439	-0.281024054	0.05280947
-0.281024054	0.05280947	-0.072430439

  0.00000000E+00  0.00000000E+00  0.00000000E+00
  0.00000000E+00  0.00000000E+00  0.00000000E+00
  0.00000000E+00  0.00000000E+00  0.00000000E+00
  0.00000000E+00  0.00000000E+00  0.00000000E+00
  0.00000000E+00  0.00000000E+00  0.00000000E+00
  0.00000000E+00  0.00000000E+00  0.00000000E+00
  0.00000000E+00  0.00000000E+00  0.00000000E+00
  0.00000000E+00  0.00000000E+00  0.00000000E+00
  0.00000000E+00  0.00000000E+00  0.00000000E+00
  0.00000000E+00  0.00000000E+00  0.00000000E+00
  0.00000000E+00  0.00000000E+00  0.00000000E+00
  0.00000000E+00  0.00000000E+00  0.00000000E+00
  0.00000000E+00  0.00000000E+00  0.00000000E+00
  0.00000000E+00  0.00000000E+00  0.00000000E+00
  0.00000000E+00  0.00000000E+00  0.00000000E+00
  0.00000000E+00  0.00000000E+00  0.00000000E+00
  0.00000000E+00  0.00000000E+00  0.00000000E+00
  0.00000000E+00  0.00000000E+00  0.00000000E+00
  0.00000000E+00  0.00000000E+00  0.00000000E+00
  0.00000000E+00  0.00000000E+00  0.00000000E+00
  0.00000000E+00  0.00000000E+00  0.00000000E+00
  0.00000000E+00  0.00000000E+00  0.00000000E+00
