Cs4GeBr6                            
   1.0000000000000000     
     9.8665277525001081    0.0251845810512703    0.0248510016774469
     0.1585113054601044    9.8652865299795920    0.0248510016730866
     0.1585113054602291    0.1563835790400078    9.8640782675187388
   Cs   Ge   Br
     8     2    12
Direct
  0.2500000000000000  0.2500000000000000  0.2500000000000000
  0.7500000000000000  0.7500000000000000  0.7500000000000000
  0.2500000000000000  0.6239452513464161  0.8760547486535839
  0.8760547486535839  0.2500000000000000  0.6239452513464161
  0.6239452513464161  0.8760547486535839  0.2500000000000000
  0.7500000000000000  0.3760547486535840  0.1239452513464161
  0.1239452513464161  0.7500000000000000  0.3760547486535840
  0.3760547486535840  0.1239452513464161  0.7500000000000000
  0.0000000000000000  0.0000000000000000 -0.0000000000000000
  0.5000000000000000  0.5000000000000000  0.5000000000000000
  0.5604256801320117  0.2224967886296531  0.4305189249289564
  0.4305189249289635  0.5604256801320046  0.2224967886296531
  0.2224967886296460  0.4305189249289635  0.5604256801320117
  0.9395743198679883  0.0694810830710372  0.2775031963703491
  0.2775031963703491  0.9395743198679883  0.0694810830710372
  0.0694810830710372  0.2775031963703420  0.9395743198679954
  0.4395743198679882  0.7775031963703420  0.5694810750710436
  0.5694810750710365  0.4395743198679953  0.7775031963703420
  0.7775031963703491  0.5694810750710365  0.4395743198679882
  0.0604256911320091  0.9305189249289635  0.7224968036296509
  0.9305189249289635  0.7224968036296580  0.0604256911320020
  0.7224968036296509  0.0604256911320091  0.9305189249289635

  0.00000000E+00  0.00000000E+00  0.00000000E+00
  0.00000000E+00  0.00000000E+00  0.00000000E+00
  0.00000000E+00  0.00000000E+00  0.00000000E+00
  0.00000000E+00  0.00000000E+00  0.00000000E+00
  0.00000000E+00  0.00000000E+00  0.00000000E+00
  0.00000000E+00  0.00000000E+00  0.00000000E+00
  0.00000000E+00  0.00000000E+00  0.00000000E+00
  0.00000000E+00  0.00000000E+00  0.00000000E+00
  0.00000000E+00  0.00000000E+00  0.00000000E+00
  0.00000000E+00  0.00000000E+00  0.00000000E+00
  0.00000000E+00  0.00000000E+00  0.00000000E+00
  0.00000000E+00  0.00000000E+00  0.00000000E+00
  0.00000000E+00  0.00000000E+00  0.00000000E+00
  0.00000000E+00  0.00000000E+00  0.00000000E+00
  0.00000000E+00  0.00000000E+00  0.00000000E+00
  0.00000000E+00  0.00000000E+00  0.00000000E+00
  0.00000000E+00  0.00000000E+00  0.00000000E+00
  0.00000000E+00  0.00000000E+00  0.00000000E+00
  0.00000000E+00  0.00000000E+00  0.00000000E+00
  0.00000000E+00  0.00000000E+00  0.00000000E+00
  0.00000000E+00  0.00000000E+00  0.00000000E+00
  0.00000000E+00  0.00000000E+00  0.00000000E+00
