Ba2TiO4                              
   1.0000000000000000     
     4.0364316072207851    0.0000000000000000    0.0000000000000000
     0.0000000000000000    4.0364316072207851    0.0000000000000000
     0.0000000000000000    0.0000000000000000   13.4386617229376419
   Ba   Ti   O 
     4     2     8
Direct
  0.0000000000000000  0.0000000000000000  0.3555048269285846
 -0.0000000000000000 -0.0000000000000000  0.6444951730714154
  0.5000000000000000  0.5000000000000000  0.8555048269285846
  0.5000000000000000  0.5000000000000000  0.1444951730714154
  0.0000000000000000  0.0000000000000000 -0.0000000000000000
  0.5000000000000000  0.5000000000000000  0.5000000000000000
 -0.0000000000000000 -0.0000000000000000  0.1482177475534059
  0.0000000000000000  0.0000000000000000  0.8517822524465940
  0.5000000000000000  0.5000000000000000  0.6482177475534060
  0.5000000000000000  0.5000000000000000  0.3517822524465941
  0.0000000000000000  0.5000000000000000 -0.0000000000000000
  0.5000000000000000  0.0000000000000000 -0.0000000000000000
  0.5000000000000000  0.0000000000000000  0.5000000000000000
  0.0000000000000000  0.5000000000000000  0.5000000000000000

  0.00000000E+00  0.00000000E+00  0.00000000E+00
  0.00000000E+00  0.00000000E+00  0.00000000E+00
  0.00000000E+00  0.00000000E+00  0.00000000E+00
  0.00000000E+00  0.00000000E+00  0.00000000E+00
  0.00000000E+00  0.00000000E+00  0.00000000E+00
  0.00000000E+00  0.00000000E+00  0.00000000E+00
  0.00000000E+00  0.00000000E+00  0.00000000E+00
  0.00000000E+00  0.00000000E+00  0.00000000E+00
  0.00000000E+00  0.00000000E+00  0.00000000E+00
  0.00000000E+00  0.00000000E+00  0.00000000E+00
  0.00000000E+00  0.00000000E+00  0.00000000E+00
  0.00000000E+00  0.00000000E+00  0.00000000E+00
  0.00000000E+00  0.00000000E+00  0.00000000E+00
  0.00000000E+00  0.00000000E+00  0.00000000E+00
