CsSbI4                             
   1.0000000000000000     
     6.0715886175782279    0.0000000000000000    0.0000000000000000
     0.0000000000000000   24.1628741116307566    0.0000000000000000
     0.0000000000000000   -0.0000000000000000    8.6026520045105670
   Cs   Sb   I 
     4     4    16
Direct
  0.0000000000000000  0.4097865841963619  0.7500000000000000
 -0.0000000000000000  0.5902133858036427  0.2500000000000000
  0.5000000000000000  0.9097866141963573  0.7500000000000000
  0.5000000000000000  0.0902134158036381  0.2500000000000000
 -0.0000000000000000  0.1007860842173101  0.7500000000000000
 -0.0000000000000000  0.8992139377826917  0.2500000000000000
  0.5000000000000000  0.6007860622173083  0.7500000000000000
  0.5000000000000000  0.3992139077826893  0.2500000000000000
 -0.0000000000000000  0.1792889261206851  0.5014071217680323
 -0.0000000000000000  0.8207111038793173  0.4985928782319677
  0.0000000000000000  0.8207111038793173  0.0014071217680323
  0.0000000000000000  0.1792889261206851  0.9985928782319677
  0.5000000000000000  0.6792888961206827  0.5014071217680323
  0.5000000000000000  0.3207110738793149  0.4985928782319677
  0.5000000000000000  0.3207110738793149  0.0014071217680323
  0.5000000000000000  0.6792888961206827  0.9985928782319677
 -0.0000000000000000 -0.0000000000000000  0.0000000000000000
 -0.0000000000000000 -0.0000000000000000  0.5000000000000000
  0.5000000000000000  0.5000000000000000  0.0000000000000000
  0.5000000000000000  0.5000000000000000  0.5000000000000000
  0.0000000000000000  0.4174999217782070  0.2500000000000000
  0.0000000000000000  0.5825000482217977  0.7500000000000000
  0.5000000000000000  0.9174999517782023  0.2500000000000000
  0.5000000000000000  0.0825000782217930  0.7500000000000000

  0.00000000E+00  0.00000000E+00  0.00000000E+00
  0.00000000E+00  0.00000000E+00  0.00000000E+00
  0.00000000E+00  0.00000000E+00  0.00000000E+00
  0.00000000E+00  0.00000000E+00  0.00000000E+00
  0.00000000E+00  0.00000000E+00  0.00000000E+00
  0.00000000E+00  0.00000000E+00  0.00000000E+00
  0.00000000E+00  0.00000000E+00  0.00000000E+00
  0.00000000E+00  0.00000000E+00  0.00000000E+00
  0.00000000E+00  0.00000000E+00  0.00000000E+00
  0.00000000E+00  0.00000000E+00  0.00000000E+00
  0.00000000E+00  0.00000000E+00  0.00000000E+00
  0.00000000E+00  0.00000000E+00  0.00000000E+00
  0.00000000E+00  0.00000000E+00  0.00000000E+00
  0.00000000E+00  0.00000000E+00  0.00000000E+00
  0.00000000E+00  0.00000000E+00  0.00000000E+00
  0.00000000E+00  0.00000000E+00  0.00000000E+00
  0.00000000E+00  0.00000000E+00  0.00000000E+00
  0.00000000E+00  0.00000000E+00  0.00000000E+00
  0.00000000E+00  0.00000000E+00  0.00000000E+00
  0.00000000E+00  0.00000000E+00  0.00000000E+00
  0.00000000E+00  0.00000000E+00  0.00000000E+00
  0.00000000E+00  0.00000000E+00  0.00000000E+00
  0.00000000E+00  0.00000000E+00  0.00000000E+00
  0.00000000E+00  0.00000000E+00  0.00000000E+00
