CsAsCl4                            
   1.0000000000000000     
     5.1321508777528209    0.0000000000000000    0.0000000000000000
     0.0000000000000000   20.2871898380351396    0.0000000000000000
     0.0000000000000000    0.0000000000000000    7.6620285054268127
   Cs   As   Cl
     4     4    16
Direct
  0.0000000000000000  0.4085164987979063  0.7500000000000000
  0.0000000000000000  0.5914834712020985  0.2500000000000000
  0.5000000000000000  0.9085165287979015  0.7500000000000000
  0.5000000000000000  0.0914835012020937  0.2500000000000000
  0.0000000000000000  0.1020637635866109  0.7500000000000000
 -0.0000000000000000  0.8979362584133909  0.2500000000000000
  0.5000000000000000  0.6020637415866091  0.7500000000000000
  0.5000000000000000  0.3979362284133884  0.2500000000000000
  0.0000000000000000  0.1781989399777005  0.5308286363497303
  0.0000000000000000  0.8218010900223019  0.4691713636502697
 -0.0000000000000000  0.8218010900223019  0.0308286363497304
  0.0000000000000000  0.1781989399777005  0.9691713636502697
  0.5000000000000000  0.6781989099776981  0.5308286363497303
  0.5000000000000000  0.3218010600222996  0.4691713636502697
  0.5000000000000000  0.3218010600222996  0.0308286363497304
  0.5000000000000000  0.6781989099776981  0.9691713636502697
 -0.0000000000000000  0.0000000000000000 -0.0000000000000000
 -0.0000000000000000  0.0000000000000000  0.5000000000000000
  0.5000000000000000  0.5000000000000000 -0.0000000000000000
  0.5000000000000000  0.5000000000000000  0.5000000000000000
 -0.0000000000000000  0.4107096092451287  0.2500000000000000
 -0.0000000000000000  0.5892903607548758  0.7500000000000000
  0.5000000000000000  0.9107096392451242  0.2500000000000000
  0.5000000000000000  0.0892903907548713  0.7500000000000000

  0.00000000E+00  0.00000000E+00  0.00000000E+00
  0.00000000E+00  0.00000000E+00  0.00000000E+00
  0.00000000E+00  0.00000000E+00  0.00000000E+00
  0.00000000E+00  0.00000000E+00  0.00000000E+00
  0.00000000E+00  0.00000000E+00  0.00000000E+00
  0.00000000E+00  0.00000000E+00  0.00000000E+00
  0.00000000E+00  0.00000000E+00  0.00000000E+00
  0.00000000E+00  0.00000000E+00  0.00000000E+00
  0.00000000E+00  0.00000000E+00  0.00000000E+00
  0.00000000E+00  0.00000000E+00  0.00000000E+00
  0.00000000E+00  0.00000000E+00  0.00000000E+00
  0.00000000E+00  0.00000000E+00  0.00000000E+00
  0.00000000E+00  0.00000000E+00  0.00000000E+00
  0.00000000E+00  0.00000000E+00  0.00000000E+00
  0.00000000E+00  0.00000000E+00  0.00000000E+00
  0.00000000E+00  0.00000000E+00  0.00000000E+00
  0.00000000E+00  0.00000000E+00  0.00000000E+00
  0.00000000E+00  0.00000000E+00  0.00000000E+00
  0.00000000E+00  0.00000000E+00  0.00000000E+00
  0.00000000E+00  0.00000000E+00  0.00000000E+00
  0.00000000E+00  0.00000000E+00  0.00000000E+00
  0.00000000E+00  0.00000000E+00  0.00000000E+00
  0.00000000E+00  0.00000000E+00  0.00000000E+00
  0.00000000E+00  0.00000000E+00  0.00000000E+00
