AsI3                                    
   1.0000000000000000     
    20.0000000000000000    0.0000000000000000    0.0000000000000000
     0.0000000000000000   20.0000000000000000    0.0000000000000000
     0.0000000000000000    0.0000000000000000   20.0000000000000000
   As   I 
     1     3
Direct
  0.0000049246980055  0.0000000000000000  0.9952794401666746
  0.1164547456178448  0.0000000000000000  0.0515708893062816
  0.9417701648420819  0.1008463607533938  0.0515748352635177
  0.9417701648420819  0.8991536392466062  0.0515748352635177

  0.00000000E+00  0.00000000E+00  0.00000000E+00
  0.00000000E+00  0.00000000E+00  0.00000000E+00
  0.00000000E+00  0.00000000E+00  0.00000000E+00
  0.00000000E+00  0.00000000E+00  0.00000000E+00
