SbI3                                    
   1.0000000000000000     
    20.0000000000000000    0.0000000000000000    0.0000000000000000
     0.0000000000000000   20.0000000000000000    0.0000000000000000
     0.0000000000000000    0.0000000000000000   20.0000000000000000
   Sb   I 
     1     3
Direct
  0.9999919128826333  0.0000000000000000  0.9899421694744873
  0.1221976501333397  0.0000000000000000  0.0533502922902391
  0.9389052184920171  0.1058464430868421  0.0533537691176326
  0.9389052184920171  0.8941535569131580  0.0533537691176326

  0.00000000E+00  0.00000000E+00  0.00000000E+00
  0.00000000E+00  0.00000000E+00  0.00000000E+00
  0.00000000E+00  0.00000000E+00  0.00000000E+00
  0.00000000E+00  0.00000000E+00  0.00000000E+00
