Cs3As2Cl9                             
   1.0000000000000000     
     7.5882652288274421   -0.0000000000000000    0.0000000000000000
    -3.7941326144137211    6.5716304588916943   -0.0000000000000000
     0.0000000000000000   -0.0000000000000000    9.1986063146388179
   Cs   As   Cl
     3     2     9
Direct
  0.3333333429999996  0.6666666870000029  0.3209848809623734
  0.6666666870000029  0.3333333429999996  0.6790151490376288
 -0.0000000000000000 -0.0000000000000000  0.0000000000000000
  0.3333333429999996  0.6666666870000029  0.8193838095327179
  0.6666666870000029  0.3333333429999996  0.1806161904672821
  0.1824300800757148  0.8150486737978760  0.6783134225896457
  0.1849513262021241  0.3673814212778295  0.6783134225896457
  0.6326185787221705  0.8175699049242874  0.6783134225896457
  0.8150486737978760  0.1824300800757148  0.3216865774103544
  0.3673814212778295  0.1849513262021241  0.3216865774103544
  0.8175699049242874  0.6326185787221705  0.3216865774103544
  0.0000000000000000  0.4983257391932643  0.0000000000000000
  0.5016742608067355  0.5016742608067355  0.0000000000000000
  0.4983257391932643 -0.0000000000000000  0.0000000000000000

  0.00000000E+00  0.00000000E+00  0.00000000E+00
  0.00000000E+00  0.00000000E+00  0.00000000E+00
  0.00000000E+00  0.00000000E+00  0.00000000E+00
  0.00000000E+00  0.00000000E+00  0.00000000E+00
  0.00000000E+00  0.00000000E+00  0.00000000E+00
  0.00000000E+00  0.00000000E+00  0.00000000E+00
  0.00000000E+00  0.00000000E+00  0.00000000E+00
  0.00000000E+00  0.00000000E+00  0.00000000E+00
  0.00000000E+00  0.00000000E+00  0.00000000E+00
  0.00000000E+00  0.00000000E+00  0.00000000E+00
  0.00000000E+00  0.00000000E+00  0.00000000E+00
  0.00000000E+00  0.00000000E+00  0.00000000E+00
  0.00000000E+00  0.00000000E+00  0.00000000E+00
  0.00000000E+00  0.00000000E+00  0.00000000E+00
