Sr4TiO6                             
   1.0000000000000000     
     6.9224272632526693   -0.0580079148009169   -0.0569361243670773
     0.0724129788124528    6.9222834288486039   -0.0572824919997358
     0.0724127842396343    0.0714021682758968    6.9221610681693448
   Sr   Ti   O 
     8     2    12
Direct
  0.2499998929512088  0.2499997221330830  0.2499999411638854
  0.7500001070487912  0.7500002778669241  0.7500000588361146
  0.2500000260783963  0.6146967745932908  0.8853033098355854
  0.8853033537220869  0.2499999325947684  0.6146966888691876
  0.6146968694407773  0.8853031993870820  0.2499998452491781
  0.7499999739216038  0.3853032254067093  0.1146966901644147
  0.1146966462779130  0.7500000674052316  0.3853033111308123
  0.3853031305592228  0.1146968006129252  0.7500001547508219
  0.0000000000000000  0.0000000000000000  0.0000000000000000
  0.5000000000000000  0.5000000000000000  0.5000000000000000
0.554904715	0.230486138	0.429070878
0.429071164	0.554904607	0.230486265
0.230486093	0.429070829	0.554904584
-0.054904617	0.070929067	0.269513961
0.269513992	-0.054904849	0.070929153
0.070929201	0.26951398	-0.05490442
0.445095285	0.769513847	0.570929122
0.570928836	0.445095393	0.769513721
0.769513893	0.570929171	0.445095416
0.054904628	-0.07092906	-0.269513961
-0.070929193	-0.26951398	0.054904431
-0.269513992	0.05490486	-0.070929145

  0.00000000E+00  0.00000000E+00  0.00000000E+00
  0.00000000E+00  0.00000000E+00  0.00000000E+00
  0.00000000E+00  0.00000000E+00  0.00000000E+00
  0.00000000E+00  0.00000000E+00  0.00000000E+00
  0.00000000E+00  0.00000000E+00  0.00000000E+00
  0.00000000E+00  0.00000000E+00  0.00000000E+00
  0.00000000E+00  0.00000000E+00  0.00000000E+00
  0.00000000E+00  0.00000000E+00  0.00000000E+00
  0.00000000E+00  0.00000000E+00  0.00000000E+00
  0.00000000E+00  0.00000000E+00  0.00000000E+00
  0.00000000E+00  0.00000000E+00  0.00000000E+00
  0.00000000E+00  0.00000000E+00  0.00000000E+00
  0.00000000E+00  0.00000000E+00  0.00000000E+00
  0.00000000E+00  0.00000000E+00  0.00000000E+00
  0.00000000E+00  0.00000000E+00  0.00000000E+00
  0.00000000E+00  0.00000000E+00  0.00000000E+00
  0.00000000E+00  0.00000000E+00  0.00000000E+00
  0.00000000E+00  0.00000000E+00  0.00000000E+00
  0.00000000E+00  0.00000000E+00  0.00000000E+00
  0.00000000E+00  0.00000000E+00  0.00000000E+00
  0.00000000E+00  0.00000000E+00  0.00000000E+00
  0.00000000E+00  0.00000000E+00  0.00000000E+00
