Ba4ZrO6                             
   1.0000000000000000     
     7.4587382731052490   -0.0224572910186162   -0.0221598356411270
     0.0783366813559796    7.4583606992975895   -0.0221598356554366
     0.0783366813548348    0.0772851536673646    7.4579931874612591
   Ba   Zr   O 
     8     2    12
Direct
  0.2500000000000000  0.2500000000000000  0.2500000000000000
  0.7500000000000000  0.7500000000000000  0.7500000000000000
  0.2500000000000000  0.6116854464165610  0.8883145535834461
  0.8883145535834532  0.2500000000000000  0.6116854464165539
  0.6116854464165468  0.8883145535834390  0.2500000000000000
  0.7500000000000000  0.3883145535834389  0.1116854464165540
  0.1116854464165469  0.7500000000000000  0.3883145535834460
  0.3883145535834531  0.1116854464165611  0.7500000000000000
 -0.0000000000000000 -0.0000000000000000  0.0000000000000000
  0.5000000000000000  0.5000000000000000  0.5000000000000000
  0.5573620734656833  0.2269301414023074  0.4266828782562866
  0.4266828782563079  0.5573620734655768  0.2269301414022505
  0.2269301414021510  0.4266828782563505  0.5573620734656336
  0.9426379265343238  0.0733171297436999  0.2730698435977589
  0.2730698435978442  0.9426379265343948  0.0733171297436715
  0.0733171297436857  0.2730698435976666  0.9426379265343877
  0.4426379265343168  0.7730698435976878  0.5733171217437064
  0.5733171217436922  0.4426379265344234  0.7730698435977447
  0.7730698435978441  0.5733171217436496  0.4426379265343665
  0.0573620844656735  0.9266828782563007  0.7269301564022411
  0.9266828782563149  0.7269301564023335  0.0573620844656096
  0.7269301564021559  0.0573620844656025  0.9266828782563291

  0.00000000E+00  0.00000000E+00  0.00000000E+00
  0.00000000E+00  0.00000000E+00  0.00000000E+00
  0.00000000E+00  0.00000000E+00  0.00000000E+00
  0.00000000E+00  0.00000000E+00  0.00000000E+00
  0.00000000E+00  0.00000000E+00  0.00000000E+00
  0.00000000E+00  0.00000000E+00  0.00000000E+00
  0.00000000E+00  0.00000000E+00  0.00000000E+00
  0.00000000E+00  0.00000000E+00  0.00000000E+00
  0.00000000E+00  0.00000000E+00  0.00000000E+00
  0.00000000E+00  0.00000000E+00  0.00000000E+00
  0.00000000E+00  0.00000000E+00  0.00000000E+00
  0.00000000E+00  0.00000000E+00  0.00000000E+00
  0.00000000E+00  0.00000000E+00  0.00000000E+00
  0.00000000E+00  0.00000000E+00  0.00000000E+00
  0.00000000E+00  0.00000000E+00  0.00000000E+00
  0.00000000E+00  0.00000000E+00  0.00000000E+00
  0.00000000E+00  0.00000000E+00  0.00000000E+00
  0.00000000E+00  0.00000000E+00  0.00000000E+00
  0.00000000E+00  0.00000000E+00  0.00000000E+00
  0.00000000E+00  0.00000000E+00  0.00000000E+00
  0.00000000E+00  0.00000000E+00  0.00000000E+00
  0.00000000E+00  0.00000000E+00  0.00000000E+00
