CaWO4
   1.0000000000000000     
     3.8537547464432600    0.0000000000000000    0.0000000000000000
     0.0000000000000000   15.3881898421009655    0.0000000000000000
     0.0000000000000000   -0.0000000000000000    5.5121981853674225
   Ca   W    O 
     4     4    16
Direct
 -0.0000000000000000  0.3061607887482640  0.7500000000000000
 -0.0000000000000000  0.6938391812517406  0.2500000000000000
  0.5000000000000000  0.8061608187482594  0.7500000000000000
  0.5000000000000000  0.1938392112517361  0.2500000000000000
 -0.0000000000000000  0.0894144000281496  0.7500000000000000
  0.0000000000000000  0.9105856219718522  0.2500000000000000
  0.5000000000000000  0.5894143780281478  0.7500000000000000
  0.5000000000000000  0.4105855919718498  0.2500000000000000
  0.0000000000000000  0.1770963643741649  0.5088438492507490
 -0.0000000000000000  0.8229036656258377  0.4911561507492508
  0.0000000000000000  0.8229036656258377  0.0088438492507491
  0.0000000000000000  0.1770963643741649  0.9911561507492510
  0.5000000000000000  0.6770963343741623  0.5088438492507490
  0.5000000000000000  0.3229036356258351  0.4911561507492508
  0.5000000000000000  0.3229036356258351  0.0088438492507491
  0.5000000000000000  0.6770963343741623  0.9911561507492510
  0.0000000000000000  0.0000000000000000 -0.0000000000000000
  0.0000000000000000  0.0000000000000000  0.5000000000000000
  0.5000000000000000  0.5000000000000000 -0.0000000000000000
  0.5000000000000000  0.5000000000000000  0.5000000000000000
  0.0000000000000000  0.4131484852009010  0.2500000000000000
  0.0000000000000000  0.5868514847991040  0.7500000000000000
  0.5000000000000000  0.9131485152008960  0.2500000000000000
  0.5000000000000000  0.0868515147990990  0.7500000000000000

  0.00000000E+00  0.00000000E+00  0.00000000E+00
  0.00000000E+00  0.00000000E+00  0.00000000E+00
  0.00000000E+00  0.00000000E+00  0.00000000E+00
  0.00000000E+00  0.00000000E+00  0.00000000E+00
  0.00000000E+00  0.00000000E+00  0.00000000E+00
  0.00000000E+00  0.00000000E+00  0.00000000E+00
  0.00000000E+00  0.00000000E+00  0.00000000E+00
  0.00000000E+00  0.00000000E+00  0.00000000E+00
  0.00000000E+00  0.00000000E+00  0.00000000E+00
  0.00000000E+00  0.00000000E+00  0.00000000E+00
  0.00000000E+00  0.00000000E+00  0.00000000E+00
  0.00000000E+00  0.00000000E+00  0.00000000E+00
  0.00000000E+00  0.00000000E+00  0.00000000E+00
  0.00000000E+00  0.00000000E+00  0.00000000E+00
  0.00000000E+00  0.00000000E+00  0.00000000E+00
  0.00000000E+00  0.00000000E+00  0.00000000E+00
  0.00000000E+00  0.00000000E+00  0.00000000E+00
  0.00000000E+00  0.00000000E+00  0.00000000E+00
  0.00000000E+00  0.00000000E+00  0.00000000E+00
  0.00000000E+00  0.00000000E+00  0.00000000E+00
  0.00000000E+00  0.00000000E+00  0.00000000E+00
  0.00000000E+00  0.00000000E+00  0.00000000E+00
  0.00000000E+00  0.00000000E+00  0.00000000E+00
  0.00000000E+00  0.00000000E+00  0.00000000E+00
