Cs2PbI4                              
   1.0000000000000000     
     6.3646716497315232    0.0000000000000000   -0.0000000000000000
     0.0000000000000000    6.3646716497315232    0.0000000000000000
     0.0000000000000000   -0.0000000000000000   19.4972947314981155
   Cs   Pb   I 
     4     2     8
Direct
 -0.0000000000000000  0.0000000000000000  0.3617164907104241
  0.0000000000000000 -0.0000000000000000  0.6382835092895759
  0.5000000000000000  0.5000000000000000  0.8617164907104241
  0.5000000000000000  0.5000000000000000  0.1382835092895759
  0.0000000000000000  0.0000000000000000 -0.0000000000000000
  0.5000000000000000  0.5000000000000000  0.5000000000000000
 -0.0000000000000000  0.0000000000000000  0.1657326470004177
  0.0000000000000000 -0.0000000000000000  0.8342673529995823
  0.5000000000000000  0.5000000000000000  0.6657326470004177
  0.5000000000000000  0.5000000000000000  0.3342673529995823
  0.0000000000000000  0.5000000000000000 -0.0000000000000000
  0.5000000000000000  0.0000000000000000 -0.0000000000000000
  0.5000000000000000  0.0000000000000000  0.5000000000000000
  0.0000000000000000  0.5000000000000000  0.5000000000000000

  0.00000000E+00  0.00000000E+00  0.00000000E+00
  0.00000000E+00  0.00000000E+00  0.00000000E+00
  0.00000000E+00  0.00000000E+00  0.00000000E+00
  0.00000000E+00  0.00000000E+00  0.00000000E+00
  0.00000000E+00  0.00000000E+00  0.00000000E+00
  0.00000000E+00  0.00000000E+00  0.00000000E+00
  0.00000000E+00  0.00000000E+00  0.00000000E+00
  0.00000000E+00  0.00000000E+00  0.00000000E+00
  0.00000000E+00  0.00000000E+00  0.00000000E+00
  0.00000000E+00  0.00000000E+00  0.00000000E+00
  0.00000000E+00  0.00000000E+00  0.00000000E+00
  0.00000000E+00  0.00000000E+00  0.00000000E+00
  0.00000000E+00  0.00000000E+00  0.00000000E+00
  0.00000000E+00  0.00000000E+00  0.00000000E+00
