Cs2GeI4                              
   1.0000000000000000     
     5.9733553339750909    0.0000000000000000    0.0000000000000000
     0.0000000000000000    5.9733553339750909    0.0000000000000000
     0.0000000000000000    0.0000000000000000   19.3736996009112161
   Cs   Ge   I 
     4     2     8
Direct
  0.0000000000000000  0.0000000000000000  0.3593195217504857
  0.0000000000000000  0.0000000000000000  0.6406804782495144
  0.5000000000000000  0.5000000000000000  0.8593195217504856
  0.5000000000000000  0.5000000000000000  0.1406804782495143
  0.0000000000000000  0.0000000000000000 -0.0000000000000000
  0.5000000000000000  0.5000000000000000  0.5000000000000000
 -0.0000000000000000 -0.0000000000000000  0.1574440035527754
  0.0000000000000000 -0.0000000000000000  0.8425559964472245
  0.5000000000000000  0.5000000000000000  0.6574440035527755
  0.5000000000000000  0.5000000000000000  0.3425559964472246
  0.0000000000000000  0.5000000000000000 -0.0000000000000000
  0.5000000000000000  0.0000000000000000 -0.0000000000000000
  0.5000000000000000  0.0000000000000000  0.5000000000000000
  0.0000000000000000  0.5000000000000000  0.5000000000000000

  0.00000000E+00  0.00000000E+00  0.00000000E+00
  0.00000000E+00  0.00000000E+00  0.00000000E+00
  0.00000000E+00  0.00000000E+00  0.00000000E+00
  0.00000000E+00  0.00000000E+00  0.00000000E+00
  0.00000000E+00  0.00000000E+00  0.00000000E+00
  0.00000000E+00  0.00000000E+00  0.00000000E+00
  0.00000000E+00  0.00000000E+00  0.00000000E+00
  0.00000000E+00  0.00000000E+00  0.00000000E+00
  0.00000000E+00  0.00000000E+00  0.00000000E+00
  0.00000000E+00  0.00000000E+00  0.00000000E+00
  0.00000000E+00  0.00000000E+00  0.00000000E+00
  0.00000000E+00  0.00000000E+00  0.00000000E+00
  0.00000000E+00  0.00000000E+00  0.00000000E+00
  0.00000000E+00  0.00000000E+00  0.00000000E+00
