Cs2SnBr4                              
   1.0000000000000000     
     5.8769017143967170   -0.0000000000000000   -0.0000000000000000
    -0.0000000000000000    5.8769017143967170    0.0000000000000000
    -0.0000000000000000    0.0000000000000000   18.3288248310025423
   Cs   Sn   Br
     4     2     8
Direct
 -0.0000000000000000  0.0000000000000000  0.3594621117012100
  0.0000000000000000 -0.0000000000000000  0.6405378882987901
  0.5000000000000000  0.5000000000000000  0.8594621117012099
  0.5000000000000000  0.5000000000000000  0.1405378882987901
 -0.0000000000000000  0.0000000000000000 -0.0000000000000000
  0.5000000000000000  0.5000000000000000  0.5000000000000000
 -0.0000000000000000  0.0000000000000000  0.1626314163432375
  0.0000000000000000 -0.0000000000000000  0.8373685836567624
  0.5000000000000000  0.5000000000000000  0.6626314163432376
  0.5000000000000000  0.5000000000000000  0.3373685836567624
 -0.0000000000000000  0.5000000000000000 -0.0000000000000000
  0.5000000000000000 -0.0000000000000000 -0.0000000000000000
  0.5000000000000000 -0.0000000000000000  0.5000000000000000
 -0.0000000000000000  0.5000000000000000  0.5000000000000000

  0.00000000E+00  0.00000000E+00  0.00000000E+00
  0.00000000E+00  0.00000000E+00  0.00000000E+00
  0.00000000E+00  0.00000000E+00  0.00000000E+00
  0.00000000E+00  0.00000000E+00  0.00000000E+00
  0.00000000E+00  0.00000000E+00  0.00000000E+00
  0.00000000E+00  0.00000000E+00  0.00000000E+00
  0.00000000E+00  0.00000000E+00  0.00000000E+00
  0.00000000E+00  0.00000000E+00  0.00000000E+00
  0.00000000E+00  0.00000000E+00  0.00000000E+00
  0.00000000E+00  0.00000000E+00  0.00000000E+00
  0.00000000E+00  0.00000000E+00  0.00000000E+00
  0.00000000E+00  0.00000000E+00  0.00000000E+00
  0.00000000E+00  0.00000000E+00  0.00000000E+00
  0.00000000E+00  0.00000000E+00  0.00000000E+00
