Cs4SnCl6                            
   1.0000000000000000     
     9.5572457300062084    0.0026587954176741    0.0026235786590766
     0.1318081660682104    9.5563371444831589    0.0026235786537427
     0.1318081660681633    0.1300388808067426    9.5554527047250488
   Cs   Sn   Cl
     8     2    12
Direct
  0.2500000000000000  0.2500000000000000  0.2500000000000000
  0.7500000000000000  0.7500000000000000  0.7500000000000000
  0.2500000000000000  0.6223642306407319  0.8776357693592681
  0.8776357693592681  0.2500000000000000  0.6223642306407319
  0.6223642306407319  0.8776357693592681  0.2500000000000000
  0.7500000000000000  0.3776357693592680  0.1223642306407319
  0.1223642306407319  0.7500000000000000  0.3776357693592680
  0.3776357693592680  0.1223642306407319  0.7500000000000000
 -0.0000000000000000 -0.0000000000000000 -0.0000000000000000
  0.5000000000000000  0.5000000000000000  0.5000000000000000
  0.5604053300269597  0.2133033889244254  0.4275316655448281
  0.4275316655448210  0.5604053300269597  0.2133033889244254
  0.2133033889244254  0.4275316655448210  0.5604053300269597
  0.9395946699730403  0.0724683424551796  0.2866965960755698
  0.2866965960755698  0.9395946699730403  0.0724683424551796
  0.0724683424551796  0.2866965960755698  0.9395946699730403
  0.4395946699730403  0.7866965960755699  0.5724683344551719
  0.5724683344551790  0.4395946699730403  0.7866965960755699
  0.7866965960755699  0.5724683344551790  0.4395946699730403
  0.0604053410269571  0.9275316655448210  0.7133034039244301
  0.9275316655448210  0.7133034039244301  0.0604053410269571
  0.7133034039244301  0.0604053410269571  0.9275316655448210

  0.00000000E+00  0.00000000E+00  0.00000000E+00
  0.00000000E+00  0.00000000E+00  0.00000000E+00
  0.00000000E+00  0.00000000E+00  0.00000000E+00
  0.00000000E+00  0.00000000E+00  0.00000000E+00
  0.00000000E+00  0.00000000E+00  0.00000000E+00
  0.00000000E+00  0.00000000E+00  0.00000000E+00
  0.00000000E+00  0.00000000E+00  0.00000000E+00
  0.00000000E+00  0.00000000E+00  0.00000000E+00
  0.00000000E+00  0.00000000E+00  0.00000000E+00
  0.00000000E+00  0.00000000E+00  0.00000000E+00
  0.00000000E+00  0.00000000E+00  0.00000000E+00
  0.00000000E+00  0.00000000E+00  0.00000000E+00
  0.00000000E+00  0.00000000E+00  0.00000000E+00
  0.00000000E+00  0.00000000E+00  0.00000000E+00
  0.00000000E+00  0.00000000E+00  0.00000000E+00
  0.00000000E+00  0.00000000E+00  0.00000000E+00
  0.00000000E+00  0.00000000E+00  0.00000000E+00
  0.00000000E+00  0.00000000E+00  0.00000000E+00
  0.00000000E+00  0.00000000E+00  0.00000000E+00
  0.00000000E+00  0.00000000E+00  0.00000000E+00
  0.00000000E+00  0.00000000E+00  0.00000000E+00
  0.00000000E+00  0.00000000E+00  0.00000000E+00
