SbBr3                                   
   1.0000000000000000     
    20.0000000000000000    0.0000000000000000    0.0000000000000000
     0.0000000000000000   20.0000000000000000    0.0000000000000000
     0.0000000000000000    0.0000000000000000   20.0000000000000000
   Sb   Br
     1     3
Direct
 -0.0000004962672443  0.0000000000000000  0.9922582617607210
  0.1110848806847211  0.0000000000000000  0.0525778987757917
  0.9444578077912685  0.0962015260624804  0.0525819197317395
  0.9444578077912685  0.9037984739375198  0.0525819197317395

  0.00000000E+00  0.00000000E+00  0.00000000E+00
  0.00000000E+00  0.00000000E+00  0.00000000E+00
  0.00000000E+00  0.00000000E+00  0.00000000E+00
  0.00000000E+00  0.00000000E+00  0.00000000E+00
