Cs3Sb2Br9                             
   1.0000000000000000     
     8.1433147130215158   -0.0000000000000000    0.0000000000000000
    -4.0716573565107579    7.0523174125772039    0.0000000000000000
    -0.0000000000000000    0.0000000000000000    9.9511543049152440
   Cs   Sb   Br
     3     2     9
Direct
  0.3333333429999996  0.6666666870000029  0.3288366825479636
  0.6666666870000029  0.3333333429999996  0.6711633474520390
 -0.0000000000000000 -0.0000000000000000  0.0000000000000000
  0.3333333429999996  0.6666666870000029  0.8161793018143325
  0.6666666870000029  0.3333333429999996  0.1838206981856675
  0.1685045640689526  0.8208283103086864  0.6679439538489225
  0.1791716896913138  0.3476762687602569  0.6679439538489225
  0.6523237312397431  0.8314954209310499  0.6679439538489225
  0.8208283103086864  0.1685045640689526  0.3320560461510776
  0.3476762687602569  0.1791716896913138  0.3320560461510776
  0.8314954209310499  0.6523237312397431  0.3320560461510776
  0.0000000000000000  0.4907432833651173  0.0000000000000000
  0.5092567166348829  0.5092567166348829  0.0000000000000000
  0.4907432833651173 -0.0000000000000000  0.0000000000000000

  0.00000000E+00  0.00000000E+00  0.00000000E+00
  0.00000000E+00  0.00000000E+00  0.00000000E+00
  0.00000000E+00  0.00000000E+00  0.00000000E+00
  0.00000000E+00  0.00000000E+00  0.00000000E+00
  0.00000000E+00  0.00000000E+00  0.00000000E+00
  0.00000000E+00  0.00000000E+00  0.00000000E+00
  0.00000000E+00  0.00000000E+00  0.00000000E+00
  0.00000000E+00  0.00000000E+00  0.00000000E+00
  0.00000000E+00  0.00000000E+00  0.00000000E+00
  0.00000000E+00  0.00000000E+00  0.00000000E+00
  0.00000000E+00  0.00000000E+00  0.00000000E+00
  0.00000000E+00  0.00000000E+00  0.00000000E+00
  0.00000000E+00  0.00000000E+00  0.00000000E+00
  0.00000000E+00  0.00000000E+00  0.00000000E+00
