Sr2HfO4                              
   1.0000000000000000     
     4.1105989683832282    0.0000000000000000   -0.0000000000000000
     0.0000000000000000    4.1105989683832282    0.0000000000000000
     0.0000000000000000    0.0000000000000000   12.7958681143576349
   Sr   Hf   O 
     4     2     8
Direct
  0.0000000000000000 -0.0000000000000000  0.3524101333889975
 -0.0000000000000000 -0.0000000000000000  0.6475898666110027
  0.5000000000000000  0.5000000000000000  0.8524101333889973
  0.5000000000000000  0.5000000000000000  0.1475898666110026
  0.0000000000000000 -0.0000000000000000  0.0000000000000000
  0.5000000000000000  0.5000000000000000  0.5000000000000000
  0.0000000000000000  0.0000000000000000  0.1642573388616256
 -0.0000000000000000  0.0000000000000000  0.8357426611383745
  0.5000000000000000  0.5000000000000000  0.6642573388616255
  0.5000000000000000  0.5000000000000000  0.3357426611383744
  0.0000000000000000  0.5000000000000000  0.0000000000000000
  0.5000000000000000 -0.0000000000000000  0.0000000000000000
  0.5000000000000000 -0.0000000000000000  0.5000000000000000
  0.0000000000000000  0.5000000000000000  0.5000000000000000

  0.00000000E+00  0.00000000E+00  0.00000000E+00
  0.00000000E+00  0.00000000E+00  0.00000000E+00
  0.00000000E+00  0.00000000E+00  0.00000000E+00
  0.00000000E+00  0.00000000E+00  0.00000000E+00
  0.00000000E+00  0.00000000E+00  0.00000000E+00
  0.00000000E+00  0.00000000E+00  0.00000000E+00
  0.00000000E+00  0.00000000E+00  0.00000000E+00
  0.00000000E+00  0.00000000E+00  0.00000000E+00
  0.00000000E+00  0.00000000E+00  0.00000000E+00
  0.00000000E+00  0.00000000E+00  0.00000000E+00
  0.00000000E+00  0.00000000E+00  0.00000000E+00
  0.00000000E+00  0.00000000E+00  0.00000000E+00
  0.00000000E+00  0.00000000E+00  0.00000000E+00
  0.00000000E+00  0.00000000E+00  0.00000000E+00
