Ca2HfO4                              
   1.0000000000000000     
     4.0740826452101828    0.0000000000000000    0.0000000000000000
     0.0000000000000000    4.0740826452101828    0.0000000000000000
     0.0000000000000000    0.0000000000000000   12.1001933733419111
   Ca   Hf   O 
     4     2     8
Direct
  0.0000000000000000  0.0000000000000000  0.3518943334651854
 -0.0000000000000000 -0.0000000000000000  0.6481056665348145
  0.5000000000000000  0.5000000000000000  0.8518943334651855
  0.5000000000000000  0.5000000000000000  0.1481056665348145
  0.0000000000000000 -0.0000000000000000 -0.0000000000000000
  0.5000000000000000  0.5000000000000000  0.5000000000000000
 -0.0000000000000000  0.0000000000000000  0.1719211308797001
  0.0000000000000000 -0.0000000000000000  0.8280788691202999
  0.5000000000000000  0.5000000000000000  0.6719211308797001
  0.5000000000000000  0.5000000000000000  0.3280788691202998
  0.0000000000000000  0.5000000000000000  0.0000000000000000
  0.5000000000000000 -0.0000000000000000  0.0000000000000000
  0.5000000000000000 -0.0000000000000000  0.5000000000000000
  0.0000000000000000  0.5000000000000000  0.5000000000000000

  0.00000000E+00  0.00000000E+00  0.00000000E+00
  0.00000000E+00  0.00000000E+00  0.00000000E+00
  0.00000000E+00  0.00000000E+00  0.00000000E+00
  0.00000000E+00  0.00000000E+00  0.00000000E+00
  0.00000000E+00  0.00000000E+00  0.00000000E+00
  0.00000000E+00  0.00000000E+00  0.00000000E+00
  0.00000000E+00  0.00000000E+00  0.00000000E+00
  0.00000000E+00  0.00000000E+00  0.00000000E+00
  0.00000000E+00  0.00000000E+00  0.00000000E+00
  0.00000000E+00  0.00000000E+00  0.00000000E+00
  0.00000000E+00  0.00000000E+00  0.00000000E+00
  0.00000000E+00  0.00000000E+00  0.00000000E+00
  0.00000000E+00  0.00000000E+00  0.00000000E+00
  0.00000000E+00  0.00000000E+00  0.00000000E+00
