RbSbCl4                            
   1.0000000000000000     
     5.3906892063136542    0.0000000000000000    0.0000000000000000
     0.0000000000000000   20.7396528794767683   -0.0000000000000000
     0.0000000000000000   -0.0000000000000000    7.5944637319492330
   Rb   Sb   Cl
     4     4    16
Direct
 -0.0000000000000000  0.3925876250569083  0.7500000000000000
 -0.0000000000000000  0.6074123449430964  0.2500000000000000
  0.5000000000000000  0.8925876550569036  0.7500000000000000
  0.5000000000000000  0.1074123749430919  0.2500000000000000
 -0.0000000000000000  0.1004108824215337  0.7500000000000000
 -0.0000000000000000  0.8995891395784682  0.2500000000000000
  0.5000000000000000  0.6004108604215318  0.7500000000000000
  0.5000000000000000  0.3995891095784656  0.2500000000000000
  0.0000000000000000  0.1799716850305100  0.5045935625167929
 -0.0000000000000000  0.8200283449694925  0.4954064374832071
 -0.0000000000000000  0.8200283449694925  0.0045935625167929
 -0.0000000000000000  0.1799716850305100  0.9954064374832071
  0.5000000000000000  0.6799716550305075  0.5045935625167929
  0.5000000000000000  0.3200283149694900  0.4954064374832071
  0.5000000000000000  0.3200283149694900  0.0045935625167929
  0.5000000000000000  0.6799716550305075  0.9954064374832071
 -0.0000000000000000  0.0000000000000000  0.0000000000000000
  0.0000000000000000  0.0000000000000000  0.5000000000000000
  0.5000000000000000  0.5000000000000000  0.0000000000000000
  0.5000000000000000  0.5000000000000000  0.5000000000000000
  0.0000000000000000  0.4102035921372155  0.2500000000000000
  0.0000000000000000  0.5897963778627819  0.7500000000000000
  0.5000000000000000  0.9102036221372181  0.2500000000000000
  0.5000000000000000  0.0897964078627845  0.7500000000000000

  0.00000000E+00  0.00000000E+00  0.00000000E+00
  0.00000000E+00  0.00000000E+00  0.00000000E+00
  0.00000000E+00  0.00000000E+00  0.00000000E+00
  0.00000000E+00  0.00000000E+00  0.00000000E+00
  0.00000000E+00  0.00000000E+00  0.00000000E+00
  0.00000000E+00  0.00000000E+00  0.00000000E+00
  0.00000000E+00  0.00000000E+00  0.00000000E+00
  0.00000000E+00  0.00000000E+00  0.00000000E+00
  0.00000000E+00  0.00000000E+00  0.00000000E+00
  0.00000000E+00  0.00000000E+00  0.00000000E+00
  0.00000000E+00  0.00000000E+00  0.00000000E+00
  0.00000000E+00  0.00000000E+00  0.00000000E+00
  0.00000000E+00  0.00000000E+00  0.00000000E+00
  0.00000000E+00  0.00000000E+00  0.00000000E+00
  0.00000000E+00  0.00000000E+00  0.00000000E+00
  0.00000000E+00  0.00000000E+00  0.00000000E+00
  0.00000000E+00  0.00000000E+00  0.00000000E+00
  0.00000000E+00  0.00000000E+00  0.00000000E+00
  0.00000000E+00  0.00000000E+00  0.00000000E+00
  0.00000000E+00  0.00000000E+00  0.00000000E+00
  0.00000000E+00  0.00000000E+00  0.00000000E+00
  0.00000000E+00  0.00000000E+00  0.00000000E+00
  0.00000000E+00  0.00000000E+00  0.00000000E+00
  0.00000000E+00  0.00000000E+00  0.00000000E+00
